&CONTROL
calculation='scf'
restart_mode='from_scratch'
prefix='SiO2_OR_576_us'
tprnfor=.true.
forc_conv_thr=3.d-5
PSEUDO_DIR='./'
verbosity='high'
nstep=350
/
&SYSTEM
IBRAV=8
celldm(1) = 37.1444715
celldm(2) = 0.86602540 
celldm(3) = 2.1998372 
NAT=1152
ntyp=2
ECUTWFC=40
ecutrho=320
occupations='fixed'
/
&ELECTRONS
startingpot='atomic'
conv_thr=1e-10
/
&ions
/
&cell
/
ATOMIC_SPECIES
'Si'    47.867       'Si.pbesol-n-rrkjus_psl.0.1.UPF'
'O'      15.9994     'O.pbesol-n-rrkjus_psl.0.1.UPF' 
ATOMIC_POSITIONS alat
Si 0.1172837   0.0000000   0.0000000 
Si 0.1172837   0.4330127   0.0000000 
Si 0.3672837   0.0000000   0.0000000 
Si 0.3672837   0.4330127   0.0000000 
Si 0.6172837   0.0000000   0.0000000 
Si 0.6172837   0.4330127   0.0000000 
Si 0.8672837   0.0000000   0.0000000 
Si 0.8672837   0.4330127   0.0000000 
Si 0.2422837   0.2165063   0.0000000 
Si 0.2422837   0.6495190   0.0000000 
Si 0.4922837   0.2165063   0.0000000 
Si 0.4922837   0.6495190   0.0000000 
Si 0.7422837   0.2165063   0.0000000 
Si 0.7422837   0.6495190   0.0000000 
Si 0.9922837   0.2165063   0.0000000 
Si 0.9922837   0.6495190   0.0000000 
O  0.0696567   0.3743553   0.0318126 
O  0.0696567   0.8073680   0.0318126 
O  0.3196567   0.3743553   0.0318126 
O  0.3196567   0.8073680   0.0318126 
O  0.5696567   0.3743553   0.0318126 
O  0.5696567   0.8073680   0.0318126 
O  0.8196567   0.3743553   0.0318126 
O  0.8196567   0.8073680   0.0318126 
O  0.1946567   0.1578489   0.0318126 
O  0.1946567   0.5908616   0.0318126 
O  0.4446567   0.1578489   0.0318126 
O  0.4446567   0.5908616   0.0318126 
O  0.6946567   0.1578489   0.0318126 
O  0.6946567   0.5908616   0.0318126 
O  0.9446567   0.1578489   0.0318126 
O  0.9446567   0.5908616   0.0318126 
O  0.1643728   0.0309958   0.0598473 
O  0.1643728   0.4640085   0.0598473 
O  0.4143728   0.0309958   0.0598473 
O  0.4143728   0.4640085   0.0598473 
O  0.6643728   0.0309958   0.0598473 
O  0.6643728   0.4640085   0.0598473 
O  0.9143728   0.0309958   0.0598473 
O  0.9143728   0.4640085   0.0598473 
O  0.0393728   0.2475022   0.0598473 
O  0.0393728   0.6805149   0.0598473 
O  0.2893728   0.2475022   0.0598473 
O  0.2893728   0.6805149   0.0598473 
O  0.5393728   0.2475022   0.0598473 
O  0.5393728   0.6805149   0.0598473 
O  0.7893728   0.2475022   0.0598473 
O  0.7893728   0.6805149   0.0598473 
Si 0.1913582   0.1015707   0.0916599 
Si 0.1913582   0.5345834   0.0916599 
Si 0.4413582   0.1015707   0.0916599 
Si 0.4413582   0.5345834   0.0916599 
Si 0.6913582   0.1015707   0.0916599 
Si 0.6913582   0.5345834   0.0916599 
Si 0.9413582   0.1015707   0.0916599 
Si 0.9413582   0.5345834   0.0916599 
Si 0.0663582   0.3180770   0.0916599 
Si 0.0663582   0.7510897   0.0916599 
Si 0.3163582   0.3180770   0.0916599 
Si 0.3163582   0.7510897   0.0916599 
Si 0.5663582   0.3180770   0.0916599 
Si 0.5663582   0.7510897   0.0916599 
Si 0.8163582   0.3180770   0.0916599 
Si 0.8163582   0.7510897   0.0916599 
O  0.0159705   0.0896532   0.1234725 
O  0.0159705   0.5226659   0.1234725 
O  0.2659705   0.0896532   0.1234725 
O  0.2659705   0.5226659   0.1234725 
O  0.5159704   0.0896532   0.1234725 
O  0.5159704   0.5226659   0.1234725 
O  0.7659704   0.0896532   0.1234725 
O  0.7659704   0.5226659   0.1234725 
O  0.1409704   0.3061596   0.1234725 
O  0.1409704   0.7391723   0.1234725 
O  0.3909705   0.3061596   0.1234725 
O  0.3909705   0.7391723   0.1234725 
O  0.6409704   0.3061596   0.1234725 
O  0.6409704   0.7391723   0.1234725 
O  0.8909704   0.3061596   0.1234725 
O  0.8909704   0.7391723   0.1234725 
O  0.0159705   0.3433595   0.1515072 
O  0.0159705   0.7763722   0.1515072 
O  0.2659705   0.3433595   0.1515072 
O  0.2659705   0.7763722   0.1515072 
O  0.5159704   0.3433595   0.1515072 
O  0.5159704   0.7763722   0.1515072 
O  0.7659704   0.3433595   0.1515072 
O  0.7659704   0.7763722   0.1515072 
O  0.1409704   0.1268531   0.1515072 
O  0.1409704   0.5598658   0.1515072 
O  0.3909705   0.1268531   0.1515072 
O  0.3909705   0.5598658   0.1515072 
O  0.6409704   0.1268531   0.1515072 
O  0.6409704   0.5598658   0.1515072 
O  0.8909704   0.1268531   0.1515072 
O  0.8909704   0.5598658   0.1515072 
Si 0.1913582   0.3314420   0.1833198 
Si 0.1913582   0.7644547   0.1833198 
Si 0.4413582   0.3314420   0.1833198 
Si 0.4413582   0.7644547   0.1833198 
Si 0.6913582   0.3314420   0.1833198 
Si 0.6913582   0.7644547   0.1833198 
Si 0.9413582   0.3314420   0.1833198 
Si 0.9413582   0.7644547   0.1833198 
Si 0.0663582   0.1149357   0.1833198 
Si 0.0663582   0.5479484   0.1833198 
Si 0.3163582   0.1149357   0.1833198 
Si 0.3163582   0.5479484   0.1833198 
Si 0.5663582   0.1149357   0.1833198 
Si 0.5663582   0.5479484   0.1833198 
Si 0.8163582   0.1149357   0.1833198 
Si 0.8163582   0.5479484   0.1833198 
O  0.1643728   0.4020169   0.2151324 
O  0.1643728   0.8350296   0.2151324 
O  0.4143728   0.4020169   0.2151324 
O  0.4143728   0.8350296   0.2151324 
O  0.6643728   0.4020169   0.2151324 
O  0.6643728   0.8350296   0.2151324 
O  0.9143728   0.4020169   0.2151324 
O  0.9143728   0.8350296   0.2151324 
O  0.0393728   0.1855106   0.2151324 
O  0.0393728   0.6185233   0.2151324 
O  0.2893728   0.1855106   0.2151324 
O  0.2893728   0.6185233   0.2151324 
O  0.5393728   0.1855106   0.2151324 
O  0.5393728   0.6185233   0.2151324 
O  0.7893728   0.1855106   0.2151324 
O  0.7893728   0.6185233   0.2151324 
O  0.0696567   0.0586574   0.2431670 
O  0.0696567   0.4916701   0.2431670 
O  0.3196567   0.0586574   0.2431670 
O  0.3196567   0.4916701   0.2431670 
O  0.5696567   0.0586574   0.2431670 
O  0.5696567   0.4916701   0.2431670 
O  0.8196567   0.0586574   0.2431670 
O  0.8196567   0.4916701   0.2431670 
O  0.1946567   0.2751638   0.2431670 
O  0.1946567   0.7081765   0.2431670 
O  0.4446567   0.2751638   0.2431670 
O  0.4446567   0.7081765   0.2431670 
O  0.6946567   0.2751638   0.2431670 
O  0.6946567   0.7081765   0.2431670 
O  0.9446567   0.2751638   0.2431670 
O  0.9446567   0.7081765   0.2431670 
Si 0.1172837   0.0000000   0.2749797 
Si 0.1172837   0.4330127   0.2749797 
Si 0.3672837   0.0000000   0.2749797 
Si 0.3672837   0.4330127   0.2749797 
Si 0.6172837   0.0000000   0.2749797 
Si 0.6172837   0.4330127   0.2749797 
Si 0.8672837   0.0000000   0.2749797 
Si 0.8672837   0.4330127   0.2749797 
Si 0.2422837   0.2165063   0.2749797 
Si 0.2422837   0.6495190   0.2749797 
Si 0.4922837   0.2165063   0.2749797 
Si 0.4922837   0.6495190   0.2749797 
Si 0.7422837   0.2165063   0.2749797 
Si 0.7422837   0.6495190   0.2749797 
Si 0.9922837   0.2165063   0.2749797 
Si 0.9922837   0.6495190   0.2749797 
O  0.0696567   0.3743553   0.3067923 
O  0.0696567   0.8073680   0.3067923 
O  0.3196567   0.3743553   0.3067923 
O  0.3196567   0.8073680   0.3067923 
O  0.5696567   0.3743553   0.3067923 
O  0.5696567   0.8073680   0.3067923 
O  0.8196567   0.3743553   0.3067923 
O  0.8196567   0.8073680   0.3067923 
O  0.1946567   0.1578489   0.3067923 
O  0.1946567   0.5908616   0.3067923 
O  0.4446567   0.1578489   0.3067923 
O  0.4446567   0.5908616   0.3067923 
O  0.6946567   0.1578489   0.3067923 
O  0.6946567   0.5908616   0.3067923 
O  0.9446567   0.1578489   0.3067923 
O  0.9446567   0.5908616   0.3067923 
O  0.1643728   0.0309958   0.3348269 
O  0.1643728   0.4640085   0.3348269 
O  0.4143728   0.0309958   0.3348269 
O  0.4143728   0.4640085   0.3348269 
O  0.6643728   0.0309958   0.3348269 
O  0.6643728   0.4640085   0.3348269 
O  0.9143728   0.0309958   0.3348269 
O  0.9143728   0.4640085   0.3348269 
O  0.0393728   0.2475022   0.3348269 
O  0.0393728   0.6805149   0.3348269 
O  0.2893728   0.2475022   0.3348269 
O  0.2893728   0.6805149   0.3348269 
O  0.5393728   0.2475022   0.3348269 
O  0.5393728   0.6805149   0.3348269 
O  0.7893728   0.2475022   0.3348269 
O  0.7893728   0.6805149   0.3348269 
Si 0.1913582   0.1015707   0.3666395 
Si 0.1913582   0.5345834   0.3666395 
Si 0.4413582   0.1015707   0.3666395 
Si 0.4413582   0.5345834   0.3666395 
Si 0.6913582   0.1015707   0.3666395 
Si 0.6913582   0.5345834   0.3666395 
Si 0.9413582   0.1015707   0.3666395 
Si 0.9413582   0.5345834   0.3666395 
Si 0.0663582   0.3180770   0.3666395 
Si 0.0663582   0.7510897   0.3666395 
Si 0.3163582   0.3180770   0.3666395 
Si 0.3163582   0.7510897   0.3666395 
Si 0.5663582   0.3180770   0.3666395 
Si 0.5663582   0.7510897   0.3666395 
Si 0.8163582   0.3180770   0.3666395 
Si 0.8163582   0.7510897   0.3666395 
O  0.0159705   0.0896532   0.3984522 
O  0.0159705   0.5226659   0.3984522 
O  0.2659705   0.0896532   0.3984522 
O  0.2659705   0.5226659   0.3984522 
O  0.5159704   0.0896532   0.3984522 
O  0.5159704   0.5226659   0.3984522 
O  0.7659704   0.0896532   0.3984522 
O  0.7659704   0.5226659   0.3984522 
O  0.1409704   0.3061596   0.3984522 
O  0.1409704   0.7391723   0.3984522 
O  0.3909705   0.3061596   0.3984522 
O  0.3909705   0.7391723   0.3984522 
O  0.6409704   0.3061596   0.3984522 
O  0.6409704   0.7391723   0.3984522 
O  0.8909704   0.3061596   0.3984522 
O  0.8909704   0.7391723   0.3984522 
O  0.0159705   0.3433595   0.4264868 
O  0.0159705   0.7763722   0.4264868 
O  0.2659705   0.3433595   0.4264868 
O  0.2659705   0.7763722   0.4264868 
O  0.5159704   0.3433595   0.4264868 
O  0.5159704   0.7763722   0.4264868 
O  0.7659704   0.3433595   0.4264868 
O  0.7659704   0.7763722   0.4264868 
O  0.1409704   0.1268531   0.4264868 
O  0.1409704   0.5598658   0.4264868 
O  0.3909705   0.1268531   0.4264868 
O  0.3909705   0.5598658   0.4264868 
O  0.6409704   0.1268531   0.4264868 
O  0.6409704   0.5598658   0.4264868 
O  0.8909704   0.1268531   0.4264868 
O  0.8909704   0.5598658   0.4264868 
Si 0.1913582   0.3314420   0.4582994 
Si 0.1913582   0.7644547   0.4582994 
Si 0.4413582   0.3314420   0.4582994 
Si 0.4413582   0.7644547   0.4582994 
Si 0.6913582   0.3314420   0.4582994 
Si 0.6913582   0.7644547   0.4582994 
Si 0.9413582   0.3314420   0.4582994 
Si 0.9413582   0.7644547   0.4582994 
Si 0.0663582   0.1149357   0.4582994 
Si 0.0663582   0.5479484   0.4582994 
Si 0.3163582   0.1149357   0.4582994 
Si 0.3163582   0.5479484   0.4582994 
Si 0.5663582   0.1149357   0.4582994 
Si 0.5663582   0.5479484   0.4582994 
Si 0.8163582   0.1149357   0.4582994 
Si 0.8163582   0.5479484   0.4582994 
O  0.1643728   0.4020169   0.4901120 
O  0.1643728   0.8350296   0.4901120 
O  0.4143728   0.4020169   0.4901120 
O  0.4143728   0.8350296   0.4901120 
O  0.6643728   0.4020169   0.4901120 
O  0.6643728   0.8350296   0.4901120 
O  0.9143728   0.4020169   0.4901120 
O  0.9143728   0.8350296   0.4901120 
O  0.0393728   0.1855106   0.4901120 
O  0.0393728   0.6185233   0.4901120 
O  0.2893728   0.1855106   0.4901120 
O  0.2893728   0.6185233   0.4901120 
O  0.5393728   0.1855106   0.4901120 
O  0.5393728   0.6185233   0.4901120 
O  0.7893728   0.1855106   0.4901120 
O  0.7893728   0.6185233   0.4901120 
O  0.0696567   0.0586574   0.5181467 
O  0.0696567   0.4916701   0.5181467 
O  0.3196567   0.0586574   0.5181467 
O  0.3196567   0.4916701   0.5181467 
O  0.5696567   0.0586574   0.5181467 
O  0.5696567   0.4916701   0.5181467 
O  0.8196567   0.0586574   0.5181467 
O  0.8196567   0.4916701   0.5181467 
O  0.1946567   0.2751638   0.5181467 
O  0.1946567   0.7081765   0.5181467 
O  0.4446567   0.2751638   0.5181467 
O  0.4446567   0.7081765   0.5181467 
O  0.6946567   0.2751638   0.5181467 
O  0.6946567   0.7081765   0.5181467 
O  0.9446567   0.2751638   0.5181467 
O  0.9446567   0.7081765   0.5181467 
Si 0.1172837   0.0000000   0.5499593 
Si 0.1172837   0.4330127   0.5499593 
Si 0.3672837   0.0000000   0.5499593 
Si 0.3672837   0.4330127   0.5499593 
Si 0.6172837   0.0000000   0.5499593 
Si 0.6172837   0.4330127   0.5499593 
Si 0.8672837   0.0000000   0.5499593 
Si 0.8672837   0.4330127   0.5499593 
Si 0.2422837   0.2165063   0.5499593 
Si 0.2422837   0.6495190   0.5499593 
Si 0.4922837   0.2165063   0.5499593 
Si 0.4922837   0.6495190   0.5499593 
Si 0.7422837   0.2165063   0.5499593 
Si 0.7422837   0.6495190   0.5499593 
Si 0.9922837   0.2165063   0.5499593 
Si 0.9922837   0.6495190   0.5499593 
O  0.0696567   0.3743553   0.5817719 
O  0.0696567   0.8073680   0.5817719 
O  0.3196567   0.3743553   0.5817719 
O  0.3196567   0.8073680   0.5817719 
O  0.5696567   0.3743553   0.5817719 
O  0.5696567   0.8073680   0.5817719 
O  0.8196567   0.3743553   0.5817719 
O  0.8196567   0.8073680   0.5817719 
O  0.1946567   0.1578489   0.5817719 
O  0.1946567   0.5908616   0.5817719 
O  0.4446567   0.1578489   0.5817719 
O  0.4446567   0.5908616   0.5817719 
O  0.6946567   0.1578489   0.5817719 
O  0.6946567   0.5908616   0.5817719 
O  0.9446567   0.1578489   0.5817719 
O  0.9446567   0.5908616   0.5817719 
O  0.1643728   0.0309958   0.6098066 
O  0.1643728   0.4640085   0.6098066 
O  0.4143728   0.0309958   0.6098066 
O  0.4143728   0.4640085   0.6098066 
O  0.6643728   0.0309958   0.6098066 
O  0.6643728   0.4640085   0.6098066 
O  0.9143728   0.0309958   0.6098066 
O  0.9143728   0.4640085   0.6098066 
O  0.0393728   0.2475022   0.6098066 
O  0.0393728   0.6805149   0.6098066 
O  0.2893728   0.2475022   0.6098066 
O  0.2893728   0.6805149   0.6098066 
O  0.5393728   0.2475022   0.6098066 
O  0.5393728   0.6805149   0.6098066 
O  0.7893728   0.2475022   0.6098066 
O  0.7893728   0.6805149   0.6098066 
Si 0.1913582   0.1015707   0.6416192 
Si 0.1913582   0.5345834   0.6416192 
Si 0.4413582   0.1015707   0.6416192 
Si 0.4413582   0.5345834   0.6416192 
Si 0.6913582   0.1015707   0.6416192 
Si 0.6913582   0.5345834   0.6416192 
Si 0.9413582   0.1015707   0.6416192 
Si 0.9413582   0.5345834   0.6416192 
Si 0.0663582   0.3180770   0.6416192 
Si 0.0663582   0.7510897   0.6416192 
Si 0.3163582   0.3180770   0.6416192 
Si 0.3163582   0.7510897   0.6416192 
Si 0.5663582   0.3180770   0.6416192 
Si 0.5663582   0.7510897   0.6416192 
Si 0.8163582   0.3180770   0.6416192 
Si 0.8163582   0.7510897   0.6416192 
O  0.0159705   0.0896532   0.6734318 
O  0.0159705   0.5226659   0.6734318 
O  0.2659705   0.0896532   0.6734318 
O  0.2659705   0.5226659   0.6734318 
O  0.5159704   0.0896532   0.6734318 
O  0.5159704   0.5226659   0.6734318 
O  0.7659704   0.0896532   0.6734318 
O  0.7659704   0.5226659   0.6734318 
O  0.1409704   0.3061596   0.6734318 
O  0.1409704   0.7391723   0.6734318 
O  0.3909705   0.3061596   0.6734318 
O  0.3909705   0.7391723   0.6734318 
O  0.6409704   0.3061596   0.6734318 
O  0.6409704   0.7391723   0.6734318 
O  0.8909704   0.3061596   0.6734318 
O  0.8909704   0.7391723   0.6734318 
O  0.0159705   0.3433595   0.7014664 
O  0.0159705   0.7763722   0.7014664 
O  0.2659705   0.3433595   0.7014664 
O  0.2659705   0.7763722   0.7014664 
O  0.5159704   0.3433595   0.7014664 
O  0.5159704   0.7763722   0.7014664 
O  0.7659704   0.3433595   0.7014664 
O  0.7659704   0.7763722   0.7014664 
O  0.1409704   0.1268531   0.7014664 
O  0.1409704   0.5598658   0.7014664 
O  0.3909705   0.1268531   0.7014664 
O  0.3909705   0.5598658   0.7014664 
O  0.6409704   0.1268531   0.7014664 
O  0.6409704   0.5598658   0.7014664 
O  0.8909704   0.1268531   0.7014664 
O  0.8909704   0.5598658   0.7014664 
Si 0.1913582   0.3314420   0.7332791 
Si 0.1913582   0.7644547   0.7332791 
Si 0.4413582   0.3314420   0.7332791 
Si 0.4413582   0.7644547   0.7332791 
Si 0.6913582   0.3314420   0.7332791 
Si 0.6913582   0.7644547   0.7332791 
Si 0.9413582   0.3314420   0.7332791 
Si 0.9413582   0.7644547   0.7332791 
Si 0.0663582   0.1149357   0.7332791 
Si 0.0663582   0.5479484   0.7332791 
Si 0.3163582   0.1149357   0.7332791 
Si 0.3163582   0.5479484   0.7332791 
Si 0.5663582   0.1149357   0.7332791 
Si 0.5663582   0.5479484   0.7332791 
Si 0.8163582   0.1149357   0.7332791 
Si 0.8163582   0.5479484   0.7332791 
O  0.1643728   0.4020169   0.7650917 
O  0.1643728   0.8350296   0.7650917 
O  0.4143728   0.4020169   0.7650917 
O  0.4143728   0.8350296   0.7650917 
O  0.6643728   0.4020169   0.7650917 
O  0.6643728   0.8350296   0.7650917 
O  0.9143728   0.4020169   0.7650917 
O  0.9143728   0.8350296   0.7650917 
O  0.0393728   0.1855106   0.7650917 
O  0.0393728   0.6185233   0.7650917 
O  0.2893728   0.1855106   0.7650917 
O  0.2893728   0.6185233   0.7650917 
O  0.5393728   0.1855106   0.7650917 
O  0.5393728   0.6185233   0.7650917 
O  0.7893728   0.1855106   0.7650917 
O  0.7893728   0.6185233   0.7650917 
O  0.0696567   0.0586574   0.7931263 
O  0.0696567   0.4916701   0.7931263 
O  0.3196567   0.0586574   0.7931263 
O  0.3196567   0.4916701   0.7931263 
O  0.5696567   0.0586574   0.7931263 
O  0.5696567   0.4916701   0.7931263 
O  0.8196567   0.0586574   0.7931263 
O  0.8196567   0.4916701   0.7931263 
O  0.1946567   0.2751638   0.7931263 
O  0.1946567   0.7081765   0.7931263 
O  0.4446567   0.2751638   0.7931263 
O  0.4446567   0.7081765   0.7931263 
O  0.6946567   0.2751638   0.7931263 
O  0.6946567   0.7081765   0.7931263 
O  0.9446567   0.2751638   0.7931263 
O  0.9446567   0.7081765   0.7931263 
Si 0.1172837   0.0000000   0.8249389 
Si 0.1172837   0.4330127   0.8249389 
Si 0.3672837   0.0000000   0.8249389 
Si 0.3672837   0.4330127   0.8249389 
Si 0.6172837   0.0000000   0.8249389 
Si 0.6172837   0.4330127   0.8249389 
Si 0.8672837   0.0000000   0.8249389 
Si 0.8672837   0.4330127   0.8249389 
Si 0.2422837   0.2165063   0.8249389 
Si 0.2422837   0.6495190   0.8249389 
Si 0.4922837   0.2165063   0.8249389 
Si 0.4922837   0.6495190   0.8249389 
Si 0.7422837   0.2165063   0.8249389 
Si 0.7422837   0.6495190   0.8249389 
Si 0.9922837   0.2165063   0.8249389 
Si 0.9922837   0.6495190   0.8249389 
O  0.0696567   0.3743553   0.8567516 
O  0.0696567   0.8073680   0.8567516 
O  0.3196567   0.3743553   0.8567516 
O  0.3196567   0.8073680   0.8567516 
O  0.5696567   0.3743553   0.8567516 
O  0.5696567   0.8073680   0.8567516 
O  0.8196567   0.3743553   0.8567516 
O  0.8196567   0.8073680   0.8567516 
O  0.1946567   0.1578489   0.8567516 
O  0.1946567   0.5908616   0.8567516 
O  0.4446567   0.1578489   0.8567516 
O  0.4446567   0.5908616   0.8567516 
O  0.6946567   0.1578489   0.8567516 
O  0.6946567   0.5908616   0.8567516 
O  0.9446567   0.1578489   0.8567516 
O  0.9446567   0.5908616   0.8567516 
O  0.1643728   0.0309958   0.8847862 
O  0.1643728   0.4640085   0.8847862 
O  0.4143728   0.0309958   0.8847862 
O  0.4143728   0.4640085   0.8847862 
O  0.6643728   0.0309958   0.8847862 
O  0.6643728   0.4640085   0.8847862 
O  0.9143728   0.0309958   0.8847862 
O  0.9143728   0.4640085   0.8847862 
O  0.0393728   0.2475022   0.8847862 
O  0.0393728   0.6805149   0.8847862 
O  0.2893728   0.2475022   0.8847862 
O  0.2893728   0.6805149   0.8847862 
O  0.5393728   0.2475022   0.8847862 
O  0.5393728   0.6805149   0.8847862 
O  0.7893728   0.2475022   0.8847862 
O  0.7893728   0.6805149   0.8847862 
Si 0.1913582   0.1015707   0.9165988 
Si 0.1913582   0.5345834   0.9165988 
Si 0.4413582   0.1015707   0.9165988 
Si 0.4413582   0.5345834   0.9165988 
Si 0.6913582   0.1015707   0.9165988 
Si 0.6913582   0.5345834   0.9165988 
Si 0.9413582   0.1015707   0.9165988 
Si 0.9413582   0.5345834   0.9165988 
Si 0.0663582   0.3180770   0.9165988 
Si 0.0663582   0.7510897   0.9165988 
Si 0.3163582   0.3180770   0.9165988 
Si 0.3163582   0.7510897   0.9165988 
Si 0.5663582   0.3180770   0.9165988 
Si 0.5663582   0.7510897   0.9165988 
Si 0.8163582   0.3180770   0.9165988 
Si 0.8163582   0.7510897   0.9165988 
O  0.0159705   0.0896532   0.9484115 
O  0.0159705   0.5226659   0.9484115 
O  0.2659705   0.0896532   0.9484115 
O  0.2659705   0.5226659   0.9484115 
O  0.5159704   0.0896532   0.9484115 
O  0.5159704   0.5226659   0.9484115 
O  0.7659704   0.0896532   0.9484115 
O  0.7659704   0.5226659   0.9484115 
O  0.1409704   0.3061596   0.9484115 
O  0.1409704   0.7391723   0.9484115 
O  0.3909705   0.3061596   0.9484115 
O  0.3909705   0.7391723   0.9484115 
O  0.6409704   0.3061596   0.9484115 
O  0.6409704   0.7391723   0.9484115 
O  0.8909704   0.3061596   0.9484115 
O  0.8909704   0.7391723   0.9484115 
O  0.0159705   0.3433595   0.9764461 
O  0.0159705   0.7763722   0.9764461 
O  0.2659705   0.3433595   0.9764461 
O  0.2659705   0.7763722   0.9764461 
O  0.5159704   0.3433595   0.9764461 
O  0.5159704   0.7763722   0.9764461 
O  0.7659704   0.3433595   0.9764461 
O  0.7659704   0.7763722   0.9764461 
O  0.1409704   0.1268531   0.9764461 
O  0.1409704   0.5598658   0.9764461 
O  0.3909705   0.1268531   0.9764461 
O  0.3909705   0.5598658   0.9764461 
O  0.6409704   0.1268531   0.9764461 
O  0.6409704   0.5598658   0.9764461 
O  0.8909704   0.1268531   0.9764461 
O  0.8909704   0.5598658   0.9764461 
Si 0.1913582   0.3314420   1.0082587 
Si 0.1913582   0.7644547   1.0082587 
Si 0.4413582   0.3314420   1.0082587 
Si 0.4413582   0.7644547   1.0082587 
Si 0.6913582   0.3314420   1.0082587 
Si 0.6913582   0.7644547   1.0082587 
Si 0.9413582   0.3314420   1.0082587 
Si 0.9413582   0.7644547   1.0082587 
Si 0.0663582   0.1149357   1.0082587 
Si 0.0663582   0.5479484   1.0082587 
Si 0.3163582   0.1149357   1.0082587 
Si 0.3163582   0.5479484   1.0082587 
Si 0.5663582   0.1149357   1.0082587 
Si 0.5663582   0.5479484   1.0082587 
Si 0.8163582   0.1149357   1.0082587 
Si 0.8163582   0.5479484   1.0082587 
O  0.1643728   0.4020169   1.0400713 
O  0.1643728   0.8350296   1.0400713 
O  0.4143728   0.4020169   1.0400713 
O  0.4143728   0.8350296   1.0400713 
O  0.6643728   0.4020169   1.0400713 
O  0.6643728   0.8350296   1.0400713 
O  0.9143728   0.4020169   1.0400713 
O  0.9143728   0.8350296   1.0400713 
O  0.0393728   0.1855106   1.0400713 
O  0.0393728   0.6185233   1.0400713 
O  0.2893728   0.1855106   1.0400713 
O  0.2893728   0.6185233   1.0400713 
O  0.5393728   0.1855106   1.0400713 
O  0.5393728   0.6185233   1.0400713 
O  0.7893728   0.1855106   1.0400713 
O  0.7893728   0.6185233   1.0400713 
O  0.0696567   0.0586574   1.0681060 
O  0.0696567   0.4916701   1.0681060 
O  0.3196567   0.0586574   1.0681060 
O  0.3196567   0.4916701   1.0681060 
O  0.5696567   0.0586574   1.0681060 
O  0.5696567   0.4916701   1.0681060 
O  0.8196567   0.0586574   1.0681060 
O  0.8196567   0.4916701   1.0681060 
O  0.1946567   0.2751638   1.0681060 
O  0.1946567   0.7081765   1.0681060 
O  0.4446567   0.2751638   1.0681060 
O  0.4446567   0.7081765   1.0681060 
O  0.6946567   0.2751638   1.0681060 
O  0.6946567   0.7081765   1.0681060 
O  0.9446567   0.2751638   1.0681060 
O  0.9446567   0.7081765   1.0681060 
Si 0.1172837   0.0000000   1.0999186 
Si 0.1172837   0.4330127   1.0999186 
Si 0.3672837   0.0000000   1.0999186 
Si 0.3672837   0.4330127   1.0999186 
Si 0.6172837   0.0000000   1.0999186 
Si 0.6172837   0.4330127   1.0999186 
Si 0.8672837   0.0000000   1.0999186 
Si 0.8672837   0.4330127   1.0999186 
Si 0.2422837   0.2165063   1.0999186 
Si 0.2422837   0.6495190   1.0999186 
Si 0.4922837   0.2165063   1.0999186 
Si 0.4922837   0.6495190   1.0999186 
Si 0.7422837   0.2165063   1.0999186 
Si 0.7422837   0.6495190   1.0999186 
Si 0.9922837   0.2165063   1.0999186 
Si 0.9922837   0.6495190   1.0999186 
O  0.0696567   0.3743553   1.1317312 
O  0.0696567   0.8073680   1.1317312 
O  0.3196567   0.3743553   1.1317312 
O  0.3196567   0.8073680   1.1317312 
O  0.5696567   0.3743553   1.1317312 
O  0.5696567   0.8073680   1.1317312 
O  0.8196567   0.3743553   1.1317312 
O  0.8196567   0.8073680   1.1317312 
O  0.1946567   0.1578489   1.1317312 
O  0.1946567   0.5908616   1.1317312 
O  0.4446567   0.1578489   1.1317312 
O  0.4446567   0.5908616   1.1317312 
O  0.6946567   0.1578489   1.1317312 
O  0.6946567   0.5908616   1.1317312 
O  0.9446567   0.1578489   1.1317312 
O  0.9446567   0.5908616   1.1317312 
O  0.1643728   0.0309958   1.1597659 
O  0.1643728   0.4640085   1.1597659 
O  0.4143728   0.0309958   1.1597659 
O  0.4143728   0.4640085   1.1597659 
O  0.6643728   0.0309958   1.1597659 
O  0.6643728   0.4640085   1.1597659 
O  0.9143728   0.0309958   1.1597659 
O  0.9143728   0.4640085   1.1597659 
O  0.0393728   0.2475022   1.1597659 
O  0.0393728   0.6805149   1.1597659 
O  0.2893728   0.2475022   1.1597659 
O  0.2893728   0.6805149   1.1597659 
O  0.5393728   0.2475022   1.1597659 
O  0.5393728   0.6805149   1.1597659 
O  0.7893728   0.2475022   1.1597659 
O  0.7893728   0.6805149   1.1597659 
Si 0.1913582   0.1015707   1.1915785 
Si 0.1913582   0.5345834   1.1915785 
Si 0.4413582   0.1015707   1.1915785 
Si 0.4413582   0.5345834   1.1915785 
Si 0.6913582   0.1015707   1.1915785 
Si 0.6913582   0.5345834   1.1915785 
Si 0.9413582   0.1015707   1.1915785 
Si 0.9413582   0.5345834   1.1915785 
Si 0.0663582   0.3180770   1.1915785 
Si 0.0663582   0.7510897   1.1915785 
Si 0.3163582   0.3180770   1.1915785 
Si 0.3163582   0.7510897   1.1915785 
Si 0.5663582   0.3180770   1.1915785 
Si 0.5663582   0.7510897   1.1915785 
Si 0.8163582   0.3180770   1.1915785 
Si 0.8163582   0.7510897   1.1915785 
O  0.0159705   0.0896532   1.2233911 
O  0.0159705   0.5226659   1.2233911 
O  0.2659705   0.0896532   1.2233911 
O  0.2659705   0.5226659   1.2233911 
O  0.5159704   0.0896532   1.2233911 
O  0.5159704   0.5226659   1.2233911 
O  0.7659704   0.0896532   1.2233911 
O  0.7659704   0.5226659   1.2233911 
O  0.1409704   0.3061596   1.2233911 
O  0.1409704   0.7391723   1.2233911 
O  0.3909705   0.3061596   1.2233911 
O  0.3909705   0.7391723   1.2233911 
O  0.6409704   0.3061596   1.2233911 
O  0.6409704   0.7391723   1.2233911 
O  0.8909704   0.3061596   1.2233911 
O  0.8909704   0.7391723   1.2233911 
O  0.0159705   0.3433595   1.2514257 
O  0.0159705   0.7763722   1.2514257 
O  0.2659705   0.3433595   1.2514257 
O  0.2659705   0.7763722   1.2514257 
O  0.5159704   0.3433595   1.2514257 
O  0.5159704   0.7763722   1.2514257 
O  0.7659704   0.3433595   1.2514257 
O  0.7659704   0.7763722   1.2514257 
O  0.1409704   0.1268531   1.2514257 
O  0.1409704   0.5598658   1.2514257 
O  0.3909705   0.1268531   1.2514257 
O  0.3909705   0.5598658   1.2514257 
O  0.6409704   0.1268531   1.2514257 
O  0.6409704   0.5598658   1.2514257 
O  0.8909704   0.1268531   1.2514257 
O  0.8909704   0.5598658   1.2514257 
Si 0.1913582   0.3314420   1.2832384 
Si 0.1913582   0.7644547   1.2832384 
Si 0.4413582   0.3314420   1.2832384 
Si 0.4413582   0.7644547   1.2832384 
Si 0.6913582   0.3314420   1.2832384 
Si 0.6913582   0.7644547   1.2832384 
Si 0.9413582   0.3314420   1.2832384 
Si 0.9413582   0.7644547   1.2832384 
Si 0.0663582   0.1149357   1.2832384 
Si 0.0663582   0.5479484   1.2832384 
Si 0.3163582   0.1149357   1.2832384 
Si 0.3163582   0.5479484   1.2832384 
Si 0.5663582   0.1149357   1.2832384 
Si 0.5663582   0.5479484   1.2832384 
Si 0.8163582   0.1149357   1.2832384 
Si 0.8163582   0.5479484   1.2832384 
O  0.1643728   0.4020169   1.3150510 
O  0.1643728   0.8350296   1.3150510 
O  0.4143728   0.4020169   1.3150510 
O  0.4143728   0.8350296   1.3150510 
O  0.6643728   0.4020169   1.3150510 
O  0.6643728   0.8350296   1.3150510 
O  0.9143728   0.4020169   1.3150510 
O  0.9143728   0.8350296   1.3150510 
O  0.0393728   0.1855106   1.3150510 
O  0.0393728   0.6185233   1.3150510 
O  0.2893728   0.1855106   1.3150510 
O  0.2893728   0.6185233   1.3150510 
O  0.5393728   0.1855106   1.3150510 
O  0.5393728   0.6185233   1.3150510 
O  0.7893728   0.1855106   1.3150510 
O  0.7893728   0.6185233   1.3150510 
O  0.0696567   0.0586574   1.3430856 
O  0.0696567   0.4916701   1.3430856 
O  0.3196567   0.0586574   1.3430856 
O  0.3196567   0.4916701   1.3430856 
O  0.5696567   0.0586574   1.3430856 
O  0.5696567   0.4916701   1.3430856 
O  0.8196567   0.0586574   1.3430856 
O  0.8196567   0.4916701   1.3430856 
O  0.1946567   0.2751638   1.3430856 
O  0.1946567   0.7081765   1.3430856 
O  0.4446567   0.2751638   1.3430856 
O  0.4446567   0.7081765   1.3430856 
O  0.6946567   0.2751638   1.3430856 
O  0.6946567   0.7081765   1.3430856 
O  0.9446567   0.2751638   1.3430856 
O  0.9446567   0.7081765   1.3430856 
Si 0.1172837   0.0000000   1.3748982 
Si 0.1172837   0.4330127   1.3748982 
Si 0.3672837   0.0000000   1.3748982 
Si 0.3672837   0.4330127   1.3748982 
Si 0.6172837   0.0000000   1.3748982 
Si 0.6172837   0.4330127   1.3748982 
Si 0.8672837   0.0000000   1.3748982 
Si 0.8672837   0.4330127   1.3748982 
Si 0.2422837   0.2165063   1.3748982 
Si 0.2422837   0.6495190   1.3748982 
Si 0.4922837   0.2165063   1.3748982 
Si 0.4922837   0.6495190   1.3748982 
Si 0.7422837   0.2165063   1.3748982 
Si 0.7422837   0.6495190   1.3748982 
Si 0.9922837   0.2165063   1.3748982 
Si 0.9922837   0.6495190   1.3748982 
O  0.0696567   0.3743553   1.4067109 
O  0.0696567   0.8073680   1.4067109 
O  0.3196567   0.3743553   1.4067109 
O  0.3196567   0.8073680   1.4067109 
O  0.5696567   0.3743553   1.4067109 
O  0.5696567   0.8073680   1.4067109 
O  0.8196567   0.3743553   1.4067109 
O  0.8196567   0.8073680   1.4067109 
O  0.1946567   0.1578489   1.4067109 
O  0.1946567   0.5908616   1.4067109 
O  0.4446567   0.1578489   1.4067109 
O  0.4446567   0.5908616   1.4067109 
O  0.6946567   0.1578489   1.4067109 
O  0.6946567   0.5908616   1.4067109 
O  0.9446567   0.1578489   1.4067109 
O  0.9446567   0.5908616   1.4067109 
O  0.1643728   0.0309958   1.4347455 
O  0.1643728   0.4640085   1.4347455 
O  0.4143728   0.0309958   1.4347455 
O  0.4143728   0.4640085   1.4347455 
O  0.6643728   0.0309958   1.4347455 
O  0.6643728   0.4640085   1.4347455 
O  0.9143728   0.0309958   1.4347455 
O  0.9143728   0.4640085   1.4347455 
O  0.0393728   0.2475022   1.4347455 
O  0.0393728   0.6805149   1.4347455 
O  0.2893728   0.2475022   1.4347455 
O  0.2893728   0.6805149   1.4347455 
O  0.5393728   0.2475022   1.4347455 
O  0.5393728   0.6805149   1.4347455 
O  0.7893728   0.2475022   1.4347455 
O  0.7893728   0.6805149   1.4347455 
Si 0.1913582   0.1015707   1.4665581 
Si 0.1913582   0.5345834   1.4665581 
Si 0.4413582   0.1015707   1.4665581 
Si 0.4413582   0.5345834   1.4665581 
Si 0.6913582   0.1015707   1.4665581 
Si 0.6913582   0.5345834   1.4665581 
Si 0.9413582   0.1015707   1.4665581 