&CONTROL
calculation='scf'
restart_mode='from_scratch'
prefix='SiO2_OR_576_us'
tprnfor=.true.
forc_conv_thr=3.d-5
PSEUDO_DIR='./'
verbosity='high'
nstep=350
/
&SYSTEM
IBRAV=8
celldm(1) = 37.1444715
celldm(2) = 1.7320508 
celldm(3) = 2.1998372 
NAT = 2304 
ntyp=2
ECUTWFC=40
ecutrho=320
occupations='fixed'
/
&ELECTRONS
startingpot='atomic'
conv_thr=1e-10
/
&ions
/
&cell
/
ATOMIC_SPECIES
'Si'    47.867       'Si.pbesol-n-rrkjus_psl.0.1.UPF'
'O'      15.9994     'O.pbesol-n-rrkjus_psl.0.1.UPF' 
ATOMIC_POSITIONS alat
Si 0.1172837   0.0000000   0.0000000 
Si 0.1172837   0.4330127   0.0000000 
Si 0.1172837   0.8660254   0.0000000 
Si 0.1172837   1.2990381   0.0000000 
Si 0.3672837   0.0000000   0.0000000 
Si 0.3672837   0.4330127   0.0000000 
Si 0.3672837   0.8660254   0.0000000 
Si 0.3672837   1.2990381   0.0000000 
Si 0.6172837   0.0000000   0.0000000 
Si 0.6172837   0.4330127   0.0000000 
Si 0.6172837   0.8660254   0.0000000 
Si 0.6172837   1.2990381   0.0000000 
Si 0.8672837   0.0000000   0.0000000 
Si 0.8672837   0.4330127   0.0000000 
Si 0.8672837   0.8660254   0.0000000 
Si 0.8672837   1.2990381   0.0000000 
Si 0.2422837   0.2165063   0.0000000 
Si 0.2422837   0.6495190   0.0000000 
Si 0.2422837   1.0825318   0.0000000 
Si 0.2422837   1.5155445   0.0000000 
Si 0.4922837   0.2165063   0.0000000 
Si 0.4922837   0.6495190   0.0000000 
Si 0.4922837   1.0825318   0.0000000 
Si 0.4922837   1.5155445   0.0000000 
Si 0.7422837   0.2165063   0.0000000 
Si 0.7422837   0.6495190   0.0000000 
Si 0.7422837   1.0825318   0.0000000 
Si 0.7422837   1.5155445   0.0000000 
Si 0.9922837   0.2165063   0.0000000 
Si 0.9922837   0.6495190   0.0000000 
Si 0.9922837   1.0825318   0.0000000 
Si 0.9922837   1.5155445   0.0000000 
O  0.0696567   0.3743553   0.0318126 
O  0.0696567   0.8073680   0.0318126 
O  0.0696567   1.2403807   0.0318126 
O  0.0696567   1.6733934   0.0318126 
O  0.3196567   0.3743553   0.0318126 
O  0.3196567   0.8073680   0.0318126 
O  0.3196567   1.2403807   0.0318126 
O  0.3196567   1.6733934   0.0318126 
O  0.5696567   0.3743553   0.0318126 
O  0.5696567   0.8073680   0.0318126 
O  0.5696567   1.2403807   0.0318126 
O  0.5696567   1.6733934   0.0318126 
O  0.8196567   0.3743553   0.0318126 
O  0.8196567   0.8073680   0.0318126 
O  0.8196567   1.2403807   0.0318126 
O  0.8196567   1.6733934   0.0318126 
O  0.1946567   0.1578489   0.0318126 
O  0.1946567   0.5908616   0.0318126 
O  0.1946567   1.0238743   0.0318126 
O  0.1946567   1.4568870   0.0318126 
O  0.4446567   0.1578489   0.0318126 
O  0.4446567   0.5908616   0.0318126 
O  0.4446567   1.0238743   0.0318126 
O  0.4446567   1.4568870   0.0318126 
O  0.6946567   0.1578489   0.0318126 
O  0.6946567   0.5908616   0.0318126 
O  0.6946567   1.0238743   0.0318126 
O  0.6946567   1.4568870   0.0318126 
O  0.9446567   0.1578489   0.0318126 
O  0.9446567   0.5908616   0.0318126 
O  0.9446567   1.0238743   0.0318126 
O  0.9446567   1.4568870   0.0318126 
O  0.1643728   0.0309958   0.0598473 
O  0.1643728   0.4640085   0.0598473 
O  0.1643728   0.8970212   0.0598473 
O  0.1643728   1.3300339   0.0598473 
O  0.4143728   0.0309958   0.0598473 
O  0.4143728   0.4640085   0.0598473 
O  0.4143728   0.8970212   0.0598473 
O  0.4143728   1.3300339   0.0598473 
O  0.6643728   0.0309958   0.0598473 
O  0.6643728   0.4640085   0.0598473 
O  0.6643728   0.8970212   0.0598473 
O  0.6643728   1.3300339   0.0598473 
O  0.9143728   0.0309958   0.0598473 
O  0.9143728   0.4640085   0.0598473 
O  0.9143728   0.8970212   0.0598473 
O  0.9143728   1.3300339   0.0598473 
O  0.0393728   0.2475022   0.0598473 
O  0.0393728   0.6805149   0.0598473 
O  0.0393728   1.1135275   0.0598473 
O  0.0393728   1.5465403   0.0598473 
O  0.2893728   0.2475022   0.0598473 
O  0.2893728   0.6805149   0.0598473 
O  0.2893728   1.1135275   0.0598473 
O  0.2893728   1.5465403   0.0598473 
O  0.5393728   0.2475022   0.0598473 
O  0.5393728   0.6805149   0.0598473 
O  0.5393728   1.1135275   0.0598473 
O  0.5393728   1.5465403   0.0598473 
O  0.7893728   0.2475022   0.0598473 
O  0.7893728   0.6805149   0.0598473 
O  0.7893728   1.1135275   0.0598473 
O  0.7893728   1.5465403   0.0598473 
Si 0.1913582   0.1015707   0.0916599 
Si 0.1913582   0.5345834   0.0916599 
Si 0.1913582   0.9675961   0.0916599 
Si 0.1913582   1.4006088   0.0916599 
Si 0.4413582   0.1015707   0.0916599 
Si 0.4413582   0.5345834   0.0916599 
Si 0.4413582   0.9675961   0.0916599 
Si 0.4413582   1.4006088   0.0916599 
Si 0.6913582   0.1015707   0.0916599 
Si 0.6913582   0.5345834   0.0916599 
Si 0.6913582   0.9675961   0.0916599 
Si 0.6913582   1.4006088   0.0916599 
Si 0.9413582   0.1015707   0.0916599 
Si 0.9413582   0.5345834   0.0916599 
Si 0.9413582   0.9675961   0.0916599 
Si 0.9413582   1.4006088   0.0916599 
Si 0.0663582   0.3180770   0.0916599 
Si 0.0663582   0.7510897   0.0916599 
Si 0.0663582   1.1841024   0.0916599 
Si 0.0663582   1.6171151   0.0916599 
Si 0.3163582   0.3180770   0.0916599 
Si 0.3163582   0.7510897   0.0916599 
Si 0.3163582   1.1841024   0.0916599 
Si 0.3163582   1.6171151   0.0916599 
Si 0.5663582   0.3180770   0.0916599 
Si 0.5663582   0.7510897   0.0916599 
Si 0.5663582   1.1841024   0.0916599 
Si 0.5663582   1.6171151   0.0916599 
Si 0.8163582   0.3180770   0.0916599 
Si 0.8163582   0.7510897   0.0916599 
Si 0.8163582   1.1841024   0.0916599 
Si 0.8163582   1.6171151   0.0916599 
O  0.0159705   0.0896532   0.1234725 
O  0.0159705   0.5226659   0.1234725 
O  0.0159705   0.9556786   0.1234725 
O  0.0159705   1.3886913   0.1234725 
O  0.2659705   0.0896532   0.1234725 
O  0.2659705   0.5226659   0.1234725 
O  0.2659705   0.9556786   0.1234725 
O  0.2659705   1.3886913   0.1234725 
O  0.5159704   0.0896532   0.1234725 
O  0.5159704   0.5226659   0.1234725 
O  0.5159704   0.9556786   0.1234725 
O  0.5159704   1.3886913   0.1234725 
O  0.7659704   0.0896532   0.1234725 
O  0.7659704   0.5226659   0.1234725 
O  0.7659704   0.9556786   0.1234725 
O  0.7659704   1.3886913   0.1234725 
O  0.1409704   0.3061596   0.1234725 
O  0.1409704   0.7391723   0.1234725 
O  0.1409704   1.1721850   0.1234725 
O  0.1409704   1.6051977   0.1234725 
O  0.3909705   0.3061596   0.1234725 
O  0.3909705   0.7391723   0.1234725 
O  0.3909705   1.1721850   0.1234725 
O  0.3909705   1.6051977   0.1234725 
O  0.6409704   0.3061596   0.1234725 
O  0.6409704   0.7391723   0.1234725 
O  0.6409704   1.1721850   0.1234725 
O  0.6409704   1.6051977   0.1234725 
O  0.8909704   0.3061596   0.1234725 
O  0.8909704   0.7391723   0.1234725 
O  0.8909704   1.1721850   0.1234725 
O  0.8909704   1.6051977   0.1234725 
O  0.0159705   0.3433595   0.1515072 
O  0.0159705   0.7763722   0.1515072 
O  0.0159705   1.2093849   0.1515072 
O  0.0159705   1.6423976   0.1515072 
O  0.2659705   0.3433595   0.1515072 
O  0.2659705   0.7763722   0.1515072 
O  0.2659705   1.2093849   0.1515072 
O  0.2659705   1.6423976   0.1515072 
O  0.5159704   0.3433595   0.1515072 
O  0.5159704   0.7763722   0.1515072 
O  0.5159704   1.2093849   0.1515072 
O  0.5159704   1.6423976   0.1515072 
O  0.7659704   0.3433595   0.1515072 
O  0.7659704   0.7763722   0.1515072 
O  0.7659704   1.2093849   0.1515072 
O  0.7659704   1.6423976   0.1515072 
O  0.1409704   0.1268531   0.1515072 
O  0.1409704   0.5598658   0.1515072 
O  0.1409704   0.9928785   0.1515072 
O  0.1409704   1.4258912   0.1515072 
O  0.3909705   0.1268531   0.1515072 
O  0.3909705   0.5598658   0.1515072 
O  0.3909705   0.9928785   0.1515072 
O  0.3909705   1.4258912   0.1515072 
O  0.6409704   0.1268531   0.1515072 
O  0.6409704   0.5598658   0.1515072 
O  0.6409704   0.9928785   0.1515072 
O  0.6409704   1.4258912   0.1515072 
O  0.8909704   0.1268531   0.1515072 
O  0.8909704   0.5598658   0.1515072 
O  0.8909704   0.9928785   0.1515072 
O  0.8909704   1.4258912   0.1515072 
Si 0.1913582   0.3314420   0.1833198 
Si 0.1913582   0.7644547   0.1833198 
Si 0.1913582   1.1974674   0.1833198 
Si 0.1913582   1.6304801   0.1833198 
Si 0.4413582   0.3314420   0.1833198 
Si 0.4413582   0.7644547   0.1833198 
Si 0.4413582   1.1974674   0.1833198 
Si 0.4413582   1.6304801   0.1833198 
Si 0.6913582   0.3314420   0.1833198 
Si 0.6913582   0.7644547   0.1833198 
Si 0.6913582   1.1974674   0.1833198 
Si 0.6913582   1.6304801   0.1833198 
Si 0.9413582   0.3314420   0.1833198 
Si 0.9413582   0.7644547   0.1833198 
Si 0.9413582   1.1974674   0.1833198 
Si 0.9413582   1.6304801   0.1833198 
Si 0.0663582   0.1149357   0.1833198 
Si 0.0663582   0.5479484   0.1833198 
Si 0.0663582   0.9809611   0.1833198 
Si 0.0663582   1.4139738   0.1833198 
Si 0.3163582   0.1149357   0.1833198 
Si 0.3163582   0.5479484   0.1833198 
Si 0.3163582   0.9809611   0.1833198 
Si 0.3163582   1.4139738   0.1833198 
Si 0.5663582   0.1149357   0.1833198 
Si 0.5663582   0.5479484   0.1833198 
Si 0.5663582   0.9809611   0.1833198 
Si 0.5663582   1.4139738   0.1833198 
Si 0.8163582   0.1149357   0.1833198 
Si 0.8163582   0.5479484   0.1833198 
Si 0.8163582   0.9809611   0.1833198 
Si 0.8163582   1.4139738   0.1833198 
O  0.1643728   0.4020169   0.2151324 
O  0.1643728   0.8350296   0.2151324 
O  0.1643728   1.2680423   0.2151324 
O  0.1643728   1.7010550   0.2151324 
O  0.4143728   0.4020169   0.2151324 
O  0.4143728   0.8350296   0.2151324 
O  0.4143728   1.2680423   0.2151324 
O  0.4143728   1.7010550   0.2151324 
O  0.6643728   0.4020169   0.2151324 
O  0.6643728   0.8350296   0.2151324 
O  0.6643728   1.2680423   0.2151324 
O  0.6643728   1.7010550   0.2151324 
O  0.9143728   0.4020169   0.2151324 
O  0.9143728   0.8350296   0.2151324 
O  0.9143728   1.2680423   0.2151324 
O  0.9143728   1.7010550   0.2151324 
O  0.0393728   0.1855106   0.2151324 
O  0.0393728   0.6185233   0.2151324 
O  0.0393728   1.0515360   0.2151324 
O  0.0393728   1.4845487   0.2151324 
O  0.2893728   0.1855106   0.2151324 
O  0.2893728   0.6185233   0.2151324 
O  0.2893728   1.0515360   0.2151324 
O  0.2893728   1.4845487   0.2151324 
O  0.5393728   0.1855106   0.2151324 
O  0.5393728   0.6185233   0.2151324 
O  0.5393728   1.0515360   0.2151324 
O  0.5393728   1.4845487   0.2151324 
O  0.7893728   0.1855106   0.2151324 
O  0.7893728   0.6185233   0.2151324 
O  0.7893728   1.0515360   0.2151324 
O  0.7893728   1.4845487   0.2151324 
O  0.0696567   0.0586574   0.2431670 
O  0.0696567   0.4916701   0.2431670 
O  0.0696567   0.9246828   0.2431670 
O  0.0696567   1.3576955   0.2431670 
O  0.3196567   0.0586574   0.2431670 
O  0.3196567   0.4916701   0.2431670 
O  0.3196567   0.9246828   0.2431670 
O  0.3196567   1.3576955   0.2431670 
O  0.5696567   0.0586574   0.2431670 
O  0.5696567   0.4916701   0.2431670 
O  0.5696567   0.9246828   0.2431670 
O  0.5696567   1.3576955   0.2431670 
O  0.8196567   0.0586574   0.2431670 
O  0.8196567   0.4916701   0.2431670 
O  0.8196567   0.9246828   0.2431670 
O  0.8196567   1.3576955   0.2431670 
O  0.1946567   0.2751638   0.2431670 
O  0.1946567   0.7081765   0.2431670 
O  0.1946567   1.1411892   0.2431670 
O  0.1946567   1.5742019   0.2431670 
O  0.4446567   0.2751638   0.2431670 
O  0.4446567   0.7081765   0.2431670 
O  0.4446567   1.1411892   0.2431670 
O  0.4446567   1.5742019   0.2431670 
O  0.6946567   0.2751638   0.2431670 
O  0.6946567   0.7081765   0.2431670 
O  0.6946567   1.1411892   0.2431670 
O  0.6946567   1.5742019   0.2431670 
O  0.9446567   0.2751638   0.2431670 
O  0.9446567   0.7081765   0.2431670 
O  0.9446567   1.1411892   0.2431670 
O  0.9446567   1.5742019   0.2431670 
Si 0.1172837   0.0000000   0.2749797 
Si 0.1172837   0.4330127   0.2749797 
Si 0.1172837   0.8660254   0.2749797 
Si 0.1172837   1.2990381   0.2749797 
Si 0.3672837   0.0000000   0.2749797 
Si 0.3672837   0.4330127   0.2749797 
Si 0.3672837   0.8660254   0.2749797 
Si 0.3672837   1.2990381   0.2749797 
Si 0.6172837   0.0000000   0.2749797 
Si 0.6172837   0.4330127   0.2749797 
Si 0.6172837   0.8660254   0.2749797 
Si 0.6172837   1.2990381   0.2749797 
Si 0.8672837   0.0000000   0.2749797 
Si 0.8672837   0.4330127   0.2749797 
Si 0.8672837   0.8660254   0.2749797 
Si 0.8672837   1.2990381   0.2749797 
Si 0.2422837   0.2165063   0.2749797 
Si 0.2422837   0.6495190   0.2749797 
Si 0.2422837   1.0825318   0.2749797 
Si 0.2422837   1.5155445   0.2749797 
Si 0.4922837   0.2165063   0.2749797 
Si 0.4922837   0.6495190   0.2749797 
Si 0.4922837   1.0825318   0.2749797 
Si 0.4922837   1.5155445   0.2749797 
Si 0.7422837   0.2165063   0.2749797 
Si 0.7422837   0.6495190   0.2749797 
Si 0.7422837   1.0825318   0.2749797 
Si 0.7422837   1.5155445   0.2749797 
Si 0.9922837   0.2165063   0.2749797 
Si 0.9922837   0.6495190   0.2749797 
Si 0.9922837   1.0825318   0.2749797 
Si 0.9922837   1.5155445   0.2749797 
O  0.0696567   0.3743553   0.3067923 
O  0.0696567   0.8073680   0.3067923 
O  0.0696567   1.2403807   0.3067923 
O  0.0696567   1.6733934   0.3067923 
O  0.3196567   0.3743553   0.3067923 
O  0.3196567   0.8073680   0.3067923 
O  0.3196567   1.2403807   0.3067923 
O  0.3196567   1.6733934   0.3067923 
O  0.5696567   0.3743553   0.3067923 
O  0.5696567   0.8073680   0.3067923 
O  0.5696567   1.2403807   0.3067923 
O  0.5696567   1.6733934   0.3067923 
O  0.8196567   0.3743553   0.3067923 
O  0.8196567   0.8073680   0.3067923 
O  0.8196567   1.2403807   0.3067923 
O  0.8196567   1.6733934   0.3067923 
O  0.1946567   0.1578489   0.3067923 
O  0.1946567   0.5908616   0.3067923 
O  0.1946567   1.0238743   0.3067923 
O  0.1946567   1.4568870   0.3067923 
O  0.4446567   0.1578489   0.3067923 
O  0.4446567   0.5908616   0.3067923 
O  0.4446567   1.0238743   0.3067923 
O  0.4446567   1.4568870   0.3067923 
O  0.6946567   0.1578489   0.3067923 
O  0.6946567   0.5908616   0.3067923 
O  0.6946567   1.0238743   0.3067923 
O  0.6946567   1.4568870   0.3067923 
O  0.9446567   0.1578489   0.3067923 
O  0.9446567   0.5908616   0.3067923 
O  0.9446567   1.0238743   0.3067923 
O  0.9446567   1.4568870   0.3067923 
O  0.1643728   0.0309958   0.3348269 
O  0.1643728   0.4640085   0.3348269 
O  0.1643728   0.8970212   0.3348269 
O  0.1643728   1.3300339   0.3348269 
O  0.4143728   0.0309958   0.3348269 
O  0.4143728   0.4640085   0.3348269 
O  0.4143728   0.8970212   0.3348269 
O  0.4143728   1.3300339   0.3348269 
O  0.6643728   0.0309958   0.3348269 
O  0.6643728   0.4640085   0.3348269 
O  0.6643728   0.8970212   0.3348269 
O  0.6643728   1.3300339   0.3348269 
O  0.9143728   0.0309958   0.3348269 
O  0.9143728   0.4640085   0.3348269 
O  0.9143728   0.8970212   0.3348269 
O  0.9143728   1.3300339   0.3348269 
O  0.0393728   0.2475022   0.3348269 
O  0.0393728   0.6805149   0.3348269 
O  0.0393728   1.1135275   0.3348269 
O  0.0393728   1.5465403   0.3348269 
O  0.2893728   0.2475022   0.3348269 
O  0.2893728   0.6805149   0.3348269 
O  0.2893728   1.1135275   0.3348269 
O  0.2893728   1.5465403   0.3348269 
O  0.5393728   0.2475022   0.3348269 
O  0.5393728   0.6805149   0.3348269 
O  0.5393728   1.1135275   0.3348269 
O  0.5393728   1.5465403   0.3348269 
O  0.7893728   0.2475022   0.3348269 
O  0.7893728   0.6805149   0.3348269 
O  0.7893728   1.1135275   0.3348269 
O  0.7893728   1.5465403   0.3348269 
Si 0.1913582   0.1015707   0.3666395 
Si 0.1913582   0.5345834   0.3666395 
Si 0.1913582   0.9675961   0.3666395 
Si 0.1913582   1.4006088   0.3666395 
Si 0.4413582   0.1015707   0.3666395 
Si 0.4413582   0.5345834   0.3666395 
Si 0.4413582   0.9675961   0.3666395 
Si 0.4413582   1.4006088   0.3666395 
Si 0.6913582   0.1015707   0.3666395 
Si 0.6913582   0.5345834   0.3666395 
Si 0.6913582   0.9675961   0.3666395 
Si 0.6913582   1.4006088   0.3666395 
Si 0.9413582   0.1015707   0.3666395 
Si 0.9413582   0.5345834   0.3666395 
Si 0.9413582   0.9675961   0.3666395 
Si 0.9413582   1.4006088   0.3666395 
Si 0.0663582   0.3180770   0.3666395 
Si 0.0663582   0.7510897   0.3666395 
Si 0.0663582   1.1841024   0.3666395 
Si 0.0663582   1.6171151   0.3666395 
Si 0.3163582   0.3180770   0.3666395 
Si 0.3163582   0.7510897   0.3666395 
Si 0.3163582   1.1841024   0.3666395 
Si 0.3163582   1.6171151   0.3666395 
Si 0.5663582   0.3180770   0.3666395 
Si 0.5663582   0.7510897   0.3666395 
Si 0.5663582   1.1841024   0.3666395 
Si 0.5663582   1.6171151   0.3666395 
Si 0.8163582   0.3180770   0.3666395 
Si 0.8163582   0.7510897   0.3666395 
Si 0.8163582   1.1841024   0.3666395 
Si 0.8163582   1.6171151   0.3666395 
O  0.0159705   0.0896532   0.3984522 
O  0.0159705   0.5226659   0.3984522 
O  0.0159705   0.9556786   0.3984522 
O  0.0159705   1.3886913   0.3984522 
O  0.2659705   0.0896532   0.3984522 
O  0.2659705   0.5226659   0.3984522 
O  0.2659705   0.9556786   0.3984522 
O  0.2659705   1.3886913   0.3984522 
O  0.5159704   0.0896532   0.3984522 
O  0.5159704   0.5226659   0.3984522 
O  0.5159704   0.9556786   0.3984522 
O  0.5159704   1.3886913   0.3984522 
O  0.7659704   0.0896532   0.3984522 
O  0.7659704   0.5226659   0.3984522 
O  0.7659704   0.9556786   0.3984522 
O  0.7659704   1.3886913   0.3984522 
O  0.1409704   0.3061596   0.3984522 
O  0.1409704   0.7391723   0.3984522 
O  0.1409704   1.1721850   0.3984522 
O  0.1409704   1.6051977   0.3984522 
O  0.3909705   0.3061596   0.3984522 
O  0.3909705   0.7391723   0.3984522 
O  0.3909705   1.1721850   0.3984522 
O  0.3909705   1.6051977   0.3984522 
O  0.6409704   0.3061596   0.3984522 
O  0.6409704   0.7391723   0.3984522 
O  0.6409704   1.1721850   0.3984522 
O  0.6409704   1.6051977   0.3984522 
O  0.8909704   0.3061596   0.3984522 
O  0.8909704   0.7391723   0.3984522 
O  0.8909704   1.1721850   0.3984522 
O  0.8909704   1.6051977   0.3984522 
O  0.0159705   0.3433595   0.4264868 
O  0.0159705   0.7763722   0.4264868 
O  0.0159705   1.2093849   0.4264868 
O  0.0159705   1.6423976   0.4264868 
O  0.2659705   0.3433595   0.4264868 
O  0.2659705   0.7763722   0.4264868 
O  0.2659705   1.2093849   0.4264868 
O  0.2659705   1.6423976   0.4264868 
O  0.5159704   0.3433595   0.4264868 
O  0.5159704   0.7763722   0.4264868 
O  0.5159704   1.2093849   0.4264868 
O  0.5159704   1.6423976   0.4264868 
O  0.7659704   0.3433595   0.4264868 
O  0.7659704   0.7763722   0.4264868 
O  0.7659704   1.2093849   0.4264868 
O  0.7659704   1.6423976   0.4264868 
O  0.1409704   0.1268531   0.4264868 
O  0.1409704   0.5598658   0.4264868 
O  0.1409704   0.9928785   0.4264868 
O  0.1409704   1.4258912   0.4264868 
O  0.3909705   0.1268531   0.4264868 
O  0.3909705   0.5598658   0.4264868 
O  0.3909705   0.9928785   0.4264868 
O  0.3909705   1.4258912   0.4264868 
O  0.6409704   0.1268531   0.4264868 
O  0.6409704   0.5598658   0.4264868 
O  0.6409704   0.9928785   0.4264868 
O  0.6409704   1.4258912   0.4264868 
O  0.8909704   0.1268531   0.4264868 
O  0.8909704   0.5598658   0.4264868 
O  0.8909704   0.9928785   0.4264868 
O  0.8909704   1.4258912   0.4264868 
Si 0.1913582   0.3314420   0.4582994 
Si 0.1913582   0.7644547   0.4582994 
Si 0.1913582   1.1974674   0.4582994 
Si 0.1913582   1.6304801   0.4582994 
Si 0.4413582   0.3314420   0.4582994 
Si 0.4413582   0.7644547   0.4582994 
Si 0.4413582   1.1974674   0.4582994 
Si 0.4413582   1.6304801   0.4582994 
Si 0.6913582   0.3314420   0.4582994 
Si 0.6913582   0.7644547   0.4582994 
Si 0.6913582   1.1974674   0.4582994 
Si 0.6913582   1.6304801   0.4582994 
Si 0.9413582   0.3314420   0.4582994 
Si 0.9413582   0.7644547   0.4582994 
Si 0.9413582   1.1974674   0.4582994 
Si 0.9413582   1.6304801   0.4582994 
Si 0.0663582   0.1149357   0.4582994 
Si 0.0663582   0.5479484   0.4582994 
Si 0.0663582   0.9809611   0.4582994 
Si 0.0663582   1.4139738   0.4582994 
Si 0.3163582   0.1149357   0.4582994 
Si 0.3163582   0.5479484   0.4582994 
Si 0.3163582   0.9809611   0.4582994 
Si 0.3163582   1.4139738   0.4582994 
Si 0.5663582   0.1149357   0.4582994 
Si 0.5663582   0.5479484   0.4582994 
Si 0.5663582   0.9809611   0.4582994 
Si 0.5663582   1.4139738   0.4582994 
Si 0.8163582   0.1149357   0.4582994 
Si 0.8163582   0.5479484   0.4582994 
Si 0.8163582   0.9809611   0.4582994 
Si 0.8163582   1.4139738   0.4582994 
O  0.1643728   0.4020169   0.4901120 
O  0.1643728   0.8350296   0.4901120 
O  0.1643728   1.2680423   0.4901120 
O  0.1643728   1.7010550   0.4901120 
O  0.4143728   0.4020169   0.4901120 
O  0.4143728   0.8350296   0.4901120 
O  0.4143728   1.2680423   0.4901120 
O  0.4143728   1.7010550   0.4901120 
O  0.6643728   0.4020169   0.4901120 
O  0.6643728   0.8350296   0.4901120 
O  0.6643728   1.2680423   0.4901120 
O  0.6643728   1.7010550   0.4901120 
O  0.9143728   0.4020169   0.4901120 
O  0.9143728   0.8350296   0.4901120 
O  0.9143728   1.2680423   0.4901120 
O  0.9143728   1.7010550   0.4901120 
O  0.0393728   0.1855106   0.4901120 
O  0.0393728   0.6185233   0.4901120 
O  0.0393728   1.0515360   0.4901120 
O  0.0393728   1.4845487   0.4901120 
O  0.2893728   0.1855106   0.4901120 
O  0.2893728   0.6185233   0.4901120 
O  0.2893728   1.0515360   0.4901120 
O  0.2893728   1.4845487   0.4901120 
O  0.5393728   0.1855106   0.4901120 
O  0.5393728   0.6185233   0.4901120 
O  0.5393728   1.0515360   0.4901120 
O  0.5393728   1.4845487   0.4901120 
O  0.7893728   0.1855106   0.4901120 
O  0.7893728   0.6185233   0.4901120 
O  0.7893728   1.0515360   0.4901120 
O  0.7893728   1.4845487   0.4901120 
O  0.0696567   0.0586574   0.5181467 
O  0.0696567   0.4916701   0.5181467 
O  0.0696567   0.9246828   0.5181467 
O  0.0696567   1.3576955   0.5181467 
O  0.3196567   0.0586574   0.5181467 
O  0.3196567   0.4916701   0.5181467 
O  0.3196567   0.9246828   0.5181467 
O  0.3196567   1.3576955   0.5181467 
O  0.5696567   0.0586574   0.5181467 
O  0.5696567   0.4916701   0.5181467 
O  0.5696567   0.9246828   0.5181467 
O  0.5696567   1.3576955   0.5181467 
O  0.8196567   0.0586574   0.5181467 
O  0.8196567   0.4916701   0.5181467 
O  0.8196567   0.9246828   0.5181467 
O  0.8196567   1.3576955   0.5181467 
O  0.1946567   0.2751638   0.5181467 
O  0.1946567   0.7081765   0.5181467 
O  0.1946567   1.1411892   0.5181467 
O  0.1946567   1.5742019   0.5181467 
O  0.4446567   0.2751638   0.5181467 
O  0.4446567   0.7081765   0.5181467 
O  0.4446567   1.1411892   0.5181467 
O  0.4446567   1.5742019   0.5181467 
O  0.6946567   0.2751638   0.5181467 
O  0.6946567   0.7081765   0.5181467 
O  0.6946567   1.1411892   0.5181467 
O  0.6946567   1.5742019   0.5181467 
O  0.9446567   0.2751638   0.5181467 
O  0.9446567   0.7081765   0.5181467 
O  0.9446567   1.1411892   0.5181467 
O  0.9446567   1.5742019   0.5181467 
Si 0.1172837   0.0000000   0.5499593 
Si 0.1172837   0.4330127   0.5499593 
Si 0.1172837   0.8660254   0.5499593 
Si 0.1172837   1.2990381   0.5499593 
Si 0.3672837   0.0000000   0.5499593 
Si 0.3672837   0.4330127   0.5499593 
Si 0.3672837   0.8660254   0.5499593 
Si 0.3672837   1.2990381   0.5499593 
Si 0.6172837   0.0000000   0.5499593 
Si 0.6172837   0.4330127   0.5499593 
Si 0.6172837   0.8660254   0.5499593 
Si 0.6172837   1.2990381   0.5499593 
Si 0.8672837   0.0000000   0.5499593 
Si 0.8672837   0.4330127   0.5499593 
Si 0.8672837   0.8660254   0.5499593 
Si 0.8672837   1.2990381   0.5499593 
Si 0.2422837   0.2165063   0.5499593 
Si 0.2422837   0.6495190   0.5499593 
Si 0.2422837   1.0825318   0.5499593 
Si 0.2422837   1.5155445   0.5499593 
Si 0.4922837   0.2165063   0.5499593 
Si 0.4922837   0.6495190   0.5499593 
Si 0.4922837   1.0825318   0.5499593 
Si 0.4922837   1.5155445   0.5499593 
Si 0.7422837   0.2165063   0.5499593 
Si 0.7422837   0.6495190   0.5499593 
Si 0.7422837   1.0825318   0.5499593 
Si 0.7422837   1.5155445   0.5499593 
Si 0.9922837   0.2165063   0.5499593 
Si 0.9922837   0.6495190   0.5499593 
Si 0.9922837   1.0825318   0.5499593 
Si 0.9922837   1.5155445   0.5499593 
O  0.0696567   0.3743553   0.5817719 
O  0.0696567   0.8073680   0.5817719 
O  0.0696567   1.2403807   0.5817719 
O  0.0696567   1.6733934   0.5817719 
O  0.3196567   0.3743553   0.5817719 
O  0.3196567   0.8073680   0.5817719 
O  0.3196567   1.2403807   0.5817719 
O  0.3196567   1.6733934   0.5817719 
O  0.5696567   0.3743553   0.5817719 
O  0.5696567   0.8073680   0.5817719 
O  0.5696567   1.2403807   0.5817719 
O  0.5696567   1.6733934   0.5817719 
O  0.8196567   0.3743553   0.5817719 
O  0.8196567   0.8073680   0.5817719 
O  0.8196567   1.2403807   0.5817719 
O  0.8196567   1.6733934   0.5817719 
O  0.1946567   0.1578489   0.5817719 
O  0.1946567   0.5908616   0.5817719 
O  0.1946567   1.0238743   0.5817719 
O  0.1946567   1.4568870   0.5817719 
O  0.4446567   0.1578489   0.5817719 
O  0.4446567   0.5908616   0.5817719 
O  0.4446567   1.0238743   0.5817719 
O  0.4446567   1.4568870   0.5817719 
O  0.6946567   0.1578489   0.5817719 
O  0.6946567   0.5908616   0.5817719 
O  0.6946567   1.0238743   0.5817719 
O  0.6946567   1.4568870   0.5817719 
O  0.9446567   0.1578489   0.5817719 
O  0.9446567   0.5908616   0.5817719 
O  0.9446567   1.0238743   0.5817719 
O  0.9446567   1.4568870   0.5817719 
O  0.1643728   0.0309958   0.6098066 
O  0.1643728   0.4640085   0.6098066 
O  0.1643728   0.8970212   0.6098066 
O  0.1643728   1.3300339   0.6098066 
O  0.4143728   0.0309958   0.6098066 
O  0.4143728   0.4640085   0.6098066 
O  0.4143728   0.8970212   0.6098066 
O  0.4143728   1.3300339   0.6098066 
O  0.6643728   0.0309958   0.6098066 
O  0.6643728   0.4640085   0.6098066 
O  0.6643728   0.8970212   0.6098066 
O  0.6643728   1.3300339   0.6098066 
O  0.9143728   0.0309958   0.6098066 
O  0.9143728   0.4640085   0.6098066 
O  0.9143728   0.8970212   0.6098066 
O  0.9143728   1.3300339   0.6098066 
O  0.0393728   0.2475022   0.6098066 
O  0.0393728   0.6805149   0.6098066 
O  0.0393728   1.1135275   0.6098066 
O  0.0393728   1.5465403   0.6098066 
O  0.2893728   0.2475022   0.6098066 
O  0.2893728   0.6805149   0.6098066 
O  0.2893728   1.1135275   0.6098066 
O  0.2893728   1.5465403   0.6098066 
O  0.5393728   0.2475022   0.6098066 
O  0.5393728   0.6805149   0.6098066 
O  0.5393728   1.1135275   0.6098066 
O  0.5393728   1.5465403   0.6098066 
O  0.7893728   0.2475022   0.6098066 
O  0.7893728   0.6805149   0.6098066 
O  0.7893728   1.1135275   0.6098066 
O  0.7893728   1.5465403   0.6098066 
Si 0.1913582   0.1015707   0.6416192 
Si 0.1913582   0.5345834   0.6416192 
Si 0.1913582   0.9675961   0.6416192 
Si 0.1913582   1.4006088   0.6416192 
Si 0.4413582   0.1015707   0.6416192 
Si 0.4413582   0.5345834   0.6416192 
Si 0.4413582   0.9675961   0.6416192 
Si 0.4413582   1.4006088   0.6416192 
Si 0.6913582   0.1015707   0.6416192 
Si 0.6913582   0.5345834   0.6416192 
Si 0.6913582   0.9675961   0.6416192 
Si 0.6913582   1.4006088   0.6416192 
Si 0.9413582   0.1015707   0.6416192 
Si 0.9413582   0.5345834   0.6416192 
Si 0.9413582   0.9675961   0.6416192 
Si 0.9413582   1.4006088   0.6416192 
Si 0.0663582   0.3180770   0.6416192 
Si 0.0663582   0.7510897   0.6416192 
Si 0.0663582   1.1841024   0.6416192 
Si 0.0663582   1.6171151   0.6416192 
Si 0.3163582   0.3180770   0.6416192 
Si 0.3163582   0.7510897   0.6416192 
Si 0.3163582   1.1841024   0.6416192 
Si 0.3163582   1.6171151   0.6416192 
Si 0.5663582   0.3180770   0.6416192 
Si 0.5663582   0.7510897   0.6416192 
Si 0.5663582   1.1841024   0.6416192 
Si 0.5663582   1.6171151   0.6416192 
Si 0.8163582   0.3180770   0.6416192 
Si 0.8163582   0.7510897   0.6416192 
Si 0.8163582   1.1841024   0.6416192 
Si 0.8163582   1.6171151   0.6416192 
O  0.0159705   0.0896532   0.6734318 
O  0.0159705   0.5226659   0.6734318 
O  0.0159705   0.9556786   0.6734318 
O  0.0159705   1.3886913   0.6734318 
O  0.2659705   0.0896532   0.6734318 
O  0.2659705   0.5226659   0.6734318 
O  0.2659705   0.9556786   0.6734318 
O  0.2659705   1.3886913   0.6734318 
O  0.5159704   0.0896532   0.6734318 
O  0.5159704   0.5226659   0.6734318 
O  0.5159704   0.9556786   0.6734318 
O  0.5159704   1.3886913   0.6734318 
O  0.7659704   0.0896532   0.6734318 
O  0.7659704   0.5226659   0.6734318 
O  0.7659704   0.9556786   0.6734318 
O  0.7659704   1.3886913   0.6734318 
O  0.1409704   0.3061596   0.6734318 
O  0.1409704   0.7391723   0.6734318 
O  0.1409704   1.1721850   0.6734318 
O  0.1409704   1.6051977   0.6734318 
O  0.3909705   0.3061596   0.6734318 
O  0.3909705   0.7391723   0.6734318 
O  0.3909705   1.1721850   0.6734318 
O  0.3909705   1.6051977   0.6734318 
O  0.6409704   0.3061596   0.6734318 
O  0.6409704   0.7391723   0.6734318 
O  0.6409704   1.1721850   0.6734318 
O  0.6409704   1.6051977   0.6734318 
O  0.8909704   0.3061596   0.6734318 
O  0.8909704   0.7391723   0.6734318 
O  0.8909704   1.1721850   0.6734318 
O  0.8909704   1.6051977   0.6734318 
O  0.0159705   0.3433595   0.7014664 
O  0.0159705   0.7763722   0.7014664 
O  0.0159705   1.2093849   0.7014664 
O  0.0159705   1.6423976   0.7014664 
O  0.2659705   0.3433595   0.7014664 
O  0.2659705   0.7763722   0.7014664 
O  0.2659705   1.2093849   0.7014664 
O  0.2659705   1.6423976   0.7014664 
O  0.5159704   0.3433595   0.7014664 
O  0.5159704   0.7763722   0.7014664 
O  0.5159704   1.2093849   0.7014664 
O  0.5159704   1.6423976   0.7014664 
O  0.7659704   0.3433595   0.7014664 
O  0.7659704   0.7763722   0.7014664 
O  0.7659704   1.2093849   0.7014664 
O  0.7659704   1.6423976   0.7014664 
O  0.1409704   0.1268531   0.7014664 
O  0.1409704   0.5598658   0.7014664 
O  0.1409704   0.9928785   0.7014664 
O  0.1409704   1.4258912   0.7014664 
O  0.3909705   0.1268531   0.7014664 
O  0.3909705   0.5598658   0.7014664 
O  0.3909705   0.9928785   0.7014664 
O  0.3909705   1.4258912   0.7014664 
O  0.6409704   0.1268531   0.7014664 
O  0.6409704   0.5598658   0.7014664 
O  0.6409704   0.9928785   0.7014664 
O  0.6409704   1.4258912   0.7014664 
O  0.8909704   0.1268531   0.7014664 
O  0.8909704   0.5598658   0.7014664 
O  0.8909704   0.9928785   0.7014664 
O  0.8909704   1.4258912   0.7014664 
Si 0.1913582   0.3314420   0.7332791 
Si 0.1913582   0.7644547   0.7332791 
Si 0.1913582   1.1974674   0.7332791 
Si 0.1913582   1.6304801   0.7332791 
Si 0.4413582   0.3314420   0.7332791 
Si 0.4413582   0.7644547   0.7332791 
Si 0.4413582   1.1974674   0.7332791 