&CONTROL
  title = ' Ausurf',
  calculation = 'scf',
  restart_mode = 'from_scratch', ! 'restart',
  tprnfor = .TRUE.,
  etot_conv_thr = 1.d-8,
  prefix = 'ausurf'
  PSEUDO_DIR='/marconi/home/userexternal/czeni000/dft_src/pseudo/'
  outdir = './'
  disk_io = 'none'
/

&SYSTEM
  ibrav = 8, 
  A =  23.600  
  B =  20.438199529312747
  C =  31.677984223631125 
  nat = 576,
  ntyp = 1, 
  ecutwfc = 40.0,
  ecutrho = 350.0,
  occupations='smearing', smearing='marzari-vanderbilt', degauss=0.05
/

&ELECTRONS
    diagonalization='david'
    mixing_beta = 0.7
    mixing_mode='TF'
/
ATOMIC_SPECIES
Au  196.96  Au.pbe-nd-van.UPF  
ATOMIC_POSITIONS (angstrom)
Au     0.000000     0.000000     0.000000 
Au     2.950000     0.000000     0.000000 
Au     5.900000     0.000000     0.000000 
Au    -0.000000     5.109550     0.000000 
Au     8.850000     0.000000     0.000000 
Au     2.950000     5.109550     0.000000 
Au    11.800000     0.000000     0.000000 
Au     5.900000     5.109550     0.000000 
Au    14.750000     0.000000     0.000000 
Au    -0.000000    10.219100     0.000000 
Au     8.850000     5.109550     0.000000 
Au    17.700000     0.000000     0.000000 
Au     2.950000    10.219100     0.000000 
Au    11.800000     5.109550     0.000000 
Au    20.650000     0.000000     0.000000 
Au     5.900000    10.219100     0.000000 
Au    14.750000     5.109550     0.000000 
Au    -0.000000    15.328650     0.000000 
Au     8.850000    10.219100     0.000000 
Au    17.700000     5.109550     0.000000 
Au     2.950000    15.328650     0.000000 
Au    11.800000    10.219100     0.000000 
Au    20.650000     5.109550     0.000000 
Au     5.900000    15.328650     0.000000 
Au    14.750000    10.219100     0.000000 
Au     8.850000    15.328650     0.000000 
Au    17.700000    10.219100     0.000000 
Au    11.800000    15.328650     0.000000 
Au    20.650000    10.219100     0.000000 
Au    14.750000    15.328650     0.000000 
Au    17.700000    15.328650     0.000000 
Au    20.650000    15.328650     0.000000 
Au     1.475000     0.851592     2.408665 
Au     4.425000     0.851592     2.408665 
Au     7.375000     0.851592     2.408665 
Au     1.475000     5.961142     2.408665 
Au     7.375000     5.961142     2.408665 
Au    10.325000     0.851592     2.408665 
Au    16.225000     0.851592     2.408665 
Au     1.475000    11.070691     2.408665 
Au     4.425000     5.961142     2.408665 
Au     4.425000    11.070691     2.408665 
Au    10.325000     5.961142     2.408665 
Au    13.275000     0.851592     2.408665 
Au    13.275000     5.961142     2.408665 
Au    19.175000     0.851592     2.408665 
Au    22.125000     0.851592     2.408665 
Au     2.950000     3.406367     2.408665 
Au     2.950000     8.515916     2.408665 
Au    11.800000     3.406367     2.408665 
Au     4.425000    16.180241     2.408665 
Au     7.375000    11.070691     2.408665 
Au    13.275000    11.070691     2.408665 
Au    16.225000     5.961142     2.408665 
Au    22.125000     5.961142     2.408665 
Au     5.900000     3.406367     2.408665 
Au     8.850000     3.406367     2.408665 
Au     1.475000    16.180241     2.408665 
Au     7.375000    16.180241     2.408665 
Au    10.325000    11.070691     2.408665 
Au    10.325000    16.180241     2.408665 
Au    16.225000    11.070691     2.408665 
Au    19.175000     5.961142     2.408665 
Au    19.175000    11.070691     2.408665 
Au     5.900000     8.515916     2.408665 
Au     8.850000     8.515916     2.408665 
Au     8.850000    13.625466     2.408665 
Au    14.750000     3.406367     2.408665 
Au    17.700000     3.406367     2.408665 
Au    17.700000     8.515916     2.408665 
Au    13.275000    16.180241     2.408665 
Au    22.125000    11.070691     2.408665 
Au     2.950000    13.625466     2.408665 
Au     5.900000    13.625466     2.408665 
Au    11.800000     8.515916     2.408665 
Au    14.750000     8.515916     2.408665 
Au    20.650000     3.406367     2.408665 
Au    23.600000     3.406367     2.408665 
Au    16.225000    16.180241     2.408665 
Au    19.175000    16.180241     2.408665 
Au     2.950000    18.735016     2.408665 
Au     5.900000    18.735016     2.408665 
Au    11.800000    13.625466     2.408665 
Au    14.750000    13.625466     2.408665 
Au    20.650000     8.515916     2.408665 
Au    23.600000     8.515916     2.408665 
Au    22.125000    16.180241     2.408665 
Au     8.850000    18.735016     2.408665 
Au    11.800000    18.735016     2.408665 
Au    14.750000    18.735016     2.408665 
Au    17.700000    13.625466     2.408665 
Au    20.650000    13.625466     2.408665 
Au    23.600000    13.625466     2.408665 
Au    17.700000    18.735016     2.408665 
Au    20.650000    18.735016     2.408665 
Au    23.600000    18.735016     2.408665 
Au     2.950000     1.703183     4.817330 
Au     7.375000     4.257958     4.817330 
Au     5.900000     1.703183     4.817330 
Au     8.850000     1.703183     4.817330 
Au     1.475000     4.257958     4.817330 
Au     4.425000     4.257958     4.817330 
Au     2.950000     6.812733     4.817330 
Au     5.900000     6.812733     4.817330 
Au     5.900000    11.922283     4.817330 
Au     5.900000    17.031833     4.817330 
Au     8.850000     6.812733     4.817330 
Au    11.800000     1.703183     4.817330 
Au    14.750000     1.703183     4.817330 
Au    14.750000     6.812733     4.817330 
Au    14.750000    11.922283     4.817330 
Au    17.700000     1.703183     4.817330 
Au    23.600000     1.703183     4.817330 
Au    23.600000     6.812733     4.817330 
Au     1.475000     9.367508     4.817330 
Au     1.475000    14.477058     4.817330 
Au     1.475000    19.586608     4.817330 
Au     4.425000     9.367508     4.817330 
Au     4.425000    14.477058     4.817330 
Au    10.325000     4.257958     4.817330 
Au    10.325000     9.367508     4.817330 
Au    10.325000    14.477058     4.817330 
Au    10.325000    19.586608     4.817330 
Au    13.275000     4.257958     4.817330 
Au    13.275000     9.367508     4.817330 
Au    19.175000     4.257958     4.817330 
Au    19.175000     9.367508     4.817330 
Au    19.175000    14.477058     4.817330 
Au    22.125000     4.257958     4.817330 
Au     2.950000    11.922283     4.817330 
Au     2.950000    17.031833     4.817330 
Au     8.850000    11.922283     4.817330 
Au     8.850000    17.031833     4.817330 
Au    11.800000     6.812733     4.817330 
Au    11.800000    11.922283     4.817330 
Au    11.800000    17.031833     4.817330 
Au    17.700000     6.812733     4.817330 
Au    17.700000    11.922283     4.817330 
Au    20.650000     1.703183     4.817330 
Au    20.650000     6.812733     4.817330 
Au    20.650000    11.922283     4.817330 
Au     4.425000    19.586608     4.817330 
Au     7.375000     9.367508     4.817330 
Au     7.375000    14.477058     4.817330 
Au     7.375000    19.586608     4.817330 
Au    13.275000    14.477058     4.817330 
Au    16.225000     4.257958     4.817330 
Au    16.225000     9.367508     4.817330 
Au    16.225000    14.477058     4.817330 
Au    22.125000     9.367508     4.817330 
Au    14.750000    17.031833     4.817330 
Au    17.700000    17.031833     4.817330 
Au    20.650000    17.031833     4.817330 
Au    23.600000    11.922283     4.817330 
Au    13.275000    19.586608     4.817330 
Au    16.225000    19.586608     4.817330 
Au    22.125000    14.477058     4.817330 
Au    22.125000    19.586608     4.817330 
Au    23.600000    17.031833     4.817330 
Au    19.175000    19.586608     4.817330 
Au     7.375000     2.554775     7.225995 
Au     0.000000     0.000000     7.225995 
Au     2.950000     0.000000     7.225995 
Au     5.900000     0.000000     7.225995 
Au     1.475000     2.554775     7.225995 
Au    -0.000000    10.219100     7.225995 
Au     2.950000     5.109550     7.225995 
Au     2.950000    10.219100     7.225995 
Au     5.900000     5.109550     7.225995 
Au     8.850000     5.109550     7.225995 
Au    11.800000     0.000000     7.225995 
Au    11.800000     5.109550     7.225995 
Au    14.750000     0.000000     7.225995 
Au    17.700000     0.000000     7.225995 
Au    20.650000     0.000000     7.225995 
Au     1.475000     7.664325     7.225995 
Au     4.425000     2.554775     7.225995 
Au     4.425000     7.664325     7.225995 
Au     7.375000     7.664325     7.225995 
Au    10.325000     2.554775     7.225995 
Au    13.275000     2.554775     7.225995 
Au    16.225000     2.554775     7.225995 
Au    19.175000    17.883425     7.225995 
Au    -0.000000     5.109550     7.225995 
Au     2.950000    15.328650     7.225995 
Au     5.900000    15.328650     7.225995 
Au     8.850000     0.000000     7.225995 
Au     8.850000    15.328650     7.225995 
Au    11.800000    10.219100     7.225995 
Au    14.750000    10.219100     7.225995 
Au    17.700000    10.219100     7.225995 
Au    20.650000     5.109550     7.225995 
Au     1.475000    12.773875     7.225995 
Au     1.475000    17.883425     7.225995 
Au     4.425000    12.773875     7.225995 
Au     4.425000    17.883425     7.225995 
Au     7.375000    12.773875     7.225995 
Au    10.325000     7.664325     7.225995 
Au    10.325000    12.773875     7.225995 
Au    13.275000     7.664325     7.225995 
Au    13.275000    12.773875     7.225995 
Au    16.225000     7.664325     7.225995 
Au    19.175000     2.554775     7.225995 
Au    19.175000     7.664325     7.225995 
Au    22.125000     2.554775     7.225995 
Au    22.125000     7.664325     7.225995 
Au    22.125000    17.883425     7.225995 
Au    -0.000000    15.328650     7.225995 
Au     5.900000    10.219100     7.225995 
Au     8.850000    10.219100     7.225995 
Au    11.800000    15.328650     7.225995 
Au    14.750000     5.109550     7.225995 
Au    14.750000    15.328650     7.225995 
Au    17.700000     5.109550     7.225995 
Au    17.700000    15.328650     7.225995 
Au    20.650000    10.219100     7.225995 
Au    20.650000    15.328650     7.225995 
Au     7.375000    17.883425     7.225995 
Au    10.325000    17.883425     7.225995 
Au    13.275000    17.883425     7.225995 
Au    16.225000    12.773875     7.225995 
Au    16.225000    17.883425     7.225995 
Au    19.175000    12.773875     7.225995 
Au    22.125000    12.773875     7.225995 
Au     1.475000     5.961142     9.634660 
Au    10.325000     0.851592     9.634660 
Au     5.900000     3.406367     9.634660 
Au     1.475000     0.851592     9.634660 
Au     4.425000     0.851592     9.634660 
Au     4.425000     5.961142     9.634660 
Au     7.375000     0.851592     9.634660 
Au    13.275000     0.851592     9.634660 
Au     2.950000     3.406367     9.634660 
Au     2.950000     8.515916     9.634660 
Au     5.900000     8.515916     9.634660 
Au     8.850000     3.406367     9.634660 
Au    11.800000     3.406367     9.634660 
Au    14.750000     3.406367     9.634660 
Au     1.475000    11.070691     9.634660 
Au     1.475000    16.180241     9.634660 
Au     4.425000    11.070691     9.634660 
Au     4.425000    16.180241     9.634660 
Au     7.375000     5.961142     9.634660 
Au     7.375000    11.070691     9.634660 
Au     7.375000    16.180241     9.634660 
Au    10.325000     5.961142     9.634660 
Au    10.325000    11.070691     9.634660 
Au    10.325000    16.180241     9.634660 
Au    13.275000     5.961142     9.634660 
Au    13.275000    11.070691     9.634660 
Au    13.275000    16.180241     9.634660 
Au    16.225000     0.851592     9.634660 
Au    16.225000     5.961142     9.634660 
Au    16.225000    11.070691     9.634660 
Au    19.175000     0.851592     9.634660 
Au    19.175000     5.961142     9.634660 
Au    19.175000    11.070691     9.634660 
Au    22.125000     0.851592     9.634660 
Au    22.125000     5.961142     9.634660 
Au    22.125000    11.070691     9.634660 
Au     2.950000    13.625466     9.634660 
Au     2.950000    18.735016     9.634660 
Au     5.900000    13.625466     9.634660 
Au     5.900000    18.735016     9.634660 
Au     8.850000     8.515916     9.634660 
Au     8.850000    13.625466     9.634660 
Au     8.850000    18.735016     9.634660 
Au    11.800000     8.515916     9.634660 
Au    11.800000    13.625466     9.634660 
Au    14.750000     8.515916     9.634660 
Au    14.750000    13.625466     9.634660 
Au    17.700000     3.406367     9.634660 
Au    17.700000     8.515916     9.634660 
Au    17.700000    13.625466     9.634660 
Au    17.700000    18.735016     9.634660 
Au    20.650000     3.406367     9.634660 
Au    20.650000     8.515916     9.634660 
Au    23.600000     3.406367     9.634660 
Au    23.600000     8.515916     9.634660 
Au    16.225000    16.180241     9.634660 
Au    19.175000    16.180241     9.634660 
Au    22.125000    16.180241     9.634660 
Au    11.800000    18.735016     9.634660 
Au    14.750000    18.735016     9.634660 
Au    20.650000    13.625466     9.634660 
Au    20.650000    18.735016     9.634660 
Au    23.600000    13.625466     9.634660 
Au    23.600000    18.735016     9.634660 
Au     2.950000     1.703183    12.043325 
Au     5.900000     1.703183    12.043325 
Au     8.850000     1.703183    12.043325 
Au     1.475000     4.257958    12.043325 
Au     4.425000     4.257958    12.043325 
Au     4.425000     9.367508    12.043325 
Au    13.275000     4.257958    12.043325 
Au     2.950000     6.812733    12.043325 
Au     2.950000    11.922283    12.043325 
Au     2.950000    17.031833    12.043325 
Au     5.900000     6.812733    12.043325 
Au     5.900000    11.922283    12.043325 
Au     5.900000    17.031833    12.043325 
Au     8.850000     6.812733    12.043325 
Au     8.850000    11.922283    12.043325 
Au     8.850000    17.031833    12.043325 
Au    11.800000     1.703183    12.043325 
Au    11.800000     6.812733    12.043325 
Au    11.800000    11.922283    12.043325 
Au    11.800000    17.031833    12.043325 
Au    14.750000     1.703183    12.043325 
Au    14.750000     6.812733    12.043325 
Au    14.750000    11.922283    12.043325 
Au    17.700000     1.703183    12.043325 
Au    17.700000     6.812733    12.043325 
Au    17.700000    11.922283    12.043325 
Au    20.650000     1.703183    12.043325 
Au    20.650000     6.812733    12.043325 
Au    20.650000    11.922283    12.043325 
Au    23.600000     1.703183    12.043325 
Au    23.600000     6.812733    12.043325 
Au     1.475000     9.367508    12.043325 
Au     1.475000    14.477058    12.043325 
Au     1.475000    19.586608    12.043325 
Au     4.425000    14.477058    12.043325 
Au     4.425000    19.586608    12.043325 
Au     7.375000     4.257958    12.043325 
Au     7.375000     9.367508    12.043325 
Au     7.375000    14.477058    12.043325 
Au     7.375000    19.586608    12.043325 
Au    10.325000     4.257958    12.043325 
Au    10.325000     9.367508    12.043325 
Au    10.325000    14.477058    12.043325 
Au    13.275000     9.367508    12.043325 
Au    13.275000    14.477058    12.043325 
Au    16.225000     4.257958    12.043325 
Au    16.225000     9.367508    12.043325 
Au    16.225000    14.477058    12.043325 
Au    19.175000     4.257958    12.043325 
Au    19.175000     9.367508    12.043325 
Au    22.125000     4.257958    12.043325 
Au    22.125000     9.367508    12.043325 
Au    14.750000    17.031833    12.043325 
Au    17.700000    17.031833    12.043325 
Au    20.650000    17.031833    12.043325 
Au    23.600000    11.922283    12.043325 
Au    23.600000    17.031833    12.043325 
Au    10.325000    19.586608    12.043325 
Au    13.275000    19.586608    12.043325 
Au    16.225000    19.586608    12.043325 
Au    19.175000    14.477058    12.043325 
Au    19.175000    19.586608    12.043325 
Au    22.125000    14.477058    12.043325 
Au    22.125000    19.586608    12.043325 
Au     0.000000     0.000000    14.451989 
Au    -0.000000     5.109550    14.451989 
Au     2.950000     0.000000    14.451989 
Au     2.950000     5.109550    14.451989 
Au     5.900000     0.000000    14.451989 
Au     8.850000     0.000000    14.451989 
Au    11.800000     0.000000    14.451989 
Au     1.475000     2.554775    14.451989 
Au     4.425000     2.554775    14.451989 
Au     7.375000     2.554775    14.451989 
Au    -0.000000    15.328650    14.451989 
Au     2.950000    10.219100    14.451989 
Au     2.950000    15.328650    14.451989 
Au     5.900000    10.219100    14.451989 
Au     5.900000    15.328650    14.451989 
Au     8.850000    10.219100    14.451989 
Au     8.850000    15.328650    14.451989 
Au    11.800000     5.109550    14.451989 
Au    11.800000    10.219100    14.451989 
Au    11.800000    15.328650    14.451989 
Au    14.750000     5.109550    14.451989 
Au    14.750000    10.219100    14.451989 
Au    14.750000    15.328650    14.451989 
Au    17.700000     5.109550    14.451989 
Au    17.700000    10.219100    14.451989 
Au    20.650000     0.000000    14.451989 
Au    20.650000     5.109550    14.451989 
Au    20.650000    10.219100    14.451989 
Au     1.475000     7.664325    14.451989 
Au     1.475000    12.773875    14.451989 
Au     1.475000    17.883425    14.451989 
Au     4.425000     7.664325    14.451989 
Au     4.425000    12.773875    14.451989 
Au     4.425000    17.883425    14.451989 
Au     7.375000     7.664325    14.451989 
Au     7.375000    12.773875    14.451989 
Au     7.375000    17.883425    14.451989 
Au    10.325000     2.554775    14.451989 
Au    10.325000     7.664325    14.451989 
Au    10.325000    12.773875    14.451989 
Au    10.325000    17.883425    14.451989 
Au    13.275000     2.554775    14.451989 
Au    13.275000     7.664325    14.451989 
Au    13.275000    12.773875    14.451989 
Au    16.225000     2.554775    14.451989 
Au    16.225000     7.664325    14.451989 
Au    16.225000    12.773875    14.451989 
Au    19.175000     2.554775    14.451989 
Au    19.175000     7.664325    14.451989 
Au    19.175000    12.773875    14.451989 
Au    22.125000     2.554775    14.451989 
Au    22.125000     7.664325    14.451989 
Au    -0.000000    10.219100    14.451989 
Au     5.900000     5.109550    14.451989 
Au     8.850000     5.109550    14.451989 
Au    14.750000     0.000000    14.451989 
Au    17.700000     0.000000    14.451989 
Au    13.275000    17.883425    14.451989 
Au    16.225000    17.883425    14.451989 
Au    22.125000    12.773875    14.451989 
Au    17.700000    15.328650    14.451989 
Au    20.650000    15.328650    14.451989 
Au    19.175000    17.883425    14.451989 
Au    22.125000    17.883425    14.451989 
Au     1.475000    11.070691    16.860654 
Au     4.425000    11.070691    16.860654 
Au     7.375000    11.070691    16.860654 
Au    10.325000     5.961142    16.860654 
Au    13.275000     5.961142    16.860654 
Au    16.225000     5.961142    16.860654 
Au    19.175000     0.851592    16.860654 
Au    22.125000     0.851592    16.860654 
Au     2.950000    13.625466    16.860654 
Au     5.900000     8.515916    16.860654 
Au     8.850000     8.515916    16.860654 
Au    11.800000     8.515916    16.860654 
Au    14.750000     3.406367    16.860654 
Au    17.700000     3.406367    16.860654 
Au    20.650000     3.406367    16.860654 
Au     1.475000     0.851592    16.860654 
Au     1.475000     5.961142    16.860654 
Au     1.475000    16.180241    16.860654 
Au     4.425000     0.851592    16.860654 
Au     4.425000     5.961142    16.860654 
Au     7.375000     0.851592    16.860654 
Au     7.375000     5.961142    16.860654 
Au    10.325000     0.851592    16.860654 
Au    10.325000    11.070691    16.860654 
Au    13.275000     0.851592    16.860654 
Au    16.225000     0.851592    16.860654 
Au    19.175000     5.961142    16.860654 
Au     2.950000     3.406367    16.860654 
Au     2.950000     8.515916    16.860654 
Au     2.950000    18.735016    16.860654 
Au     5.900000     3.406367    16.860654 
Au     5.900000    13.625466    16.860654 
Au     8.850000     3.406367    16.860654 
Au     8.850000    13.625466    16.860654 
Au    11.800000     3.406367    16.860654 
Au    11.800000    13.625466    16.860654 
Au    14.750000     8.515916    16.860654 
Au    17.700000     8.515916    16.860654 
Au    20.650000     8.515916    16.860654 
Au    23.600000     3.406367    16.860654 
Au     4.425000    16.180241    16.860654 
Au     7.375000    16.180241    16.860654 
Au    10.325000    16.180241    16.860654 
Au    13.275000    11.070691    16.860654 
Au    13.275000    16.180241    16.860654 
Au    16.225000    11.070691    16.860654 
Au    16.225000    16.180241    16.860654 
Au    19.175000    11.070691    16.860654 
Au    19.175000    16.180241    16.860654 
Au    22.125000     5.961142    16.860654 
Au    22.125000    11.070691    16.860654 
Au    22.125000    16.180241    16.860654 
Au     5.900000    18.735016    16.860654 
Au     8.850000    18.735016    16.860654 
Au    11.800000    18.735016    16.860654 
Au    14.750000    13.625466    16.860654 
Au    14.750000    18.735016    16.860654 
Au    17.700000    13.625466    16.860654 
Au    17.700000    18.735016    16.860654 
Au    20.650000    13.625466    16.860654 
Au    20.650000    18.735016    16.860654 
Au    23.600000     8.515916    16.860654 
Au    23.600000    13.625466    16.860654 
Au    23.600000    18.735016    16.860654 
Au     2.950000    11.922283    19.269319 
Au     5.900000    11.922283    19.269319 
Au     8.850000     6.812733    19.269319 
Au    11.800000     6.812733    19.269319 
Au    14.750000     6.812733    19.269319 
Au    17.700000     1.703183    19.269319 
Au    20.650000     1.703183    19.269319 
Au    23.600000     1.703183    19.269319 
Au     1.475000    14.477058    19.269319 
Au     4.425000     9.367508    19.269319 
Au     7.375000     9.367508    19.269319 
Au    10.325000     9.367508    19.269319 
Au    13.275000     4.257958    19.269319 
Au    16.225000     4.257958    19.269319 
Au    19.175000     4.257958    19.269319 
Au     2.950000     1.703183    19.269319 
Au     2.950000     6.812733    19.269319 
Au     2.950000    17.031833    19.269319 
Au     5.900000     1.703183    19.269319 
Au     5.900000     6.812733    19.269319 
Au     8.850000     1.703183    19.269319 
Au     8.850000    11.922283    19.269319 
Au    11.800000     1.703183    19.269319 
Au    11.800000    11.922283    19.269319 
Au    14.750000     1.703183    19.269319 
Au    17.700000     6.812733    19.269319 
Au    20.650000     6.812733    19.269319 
Au     1.475000     4.257958    19.269319 
Au     1.475000     9.367508    19.269319 
Au     1.475000    19.586608    19.269319 
Au     4.425000     4.257958    19.269319 
Au     4.425000    14.477058    19.269319 
Au     7.375000     4.257958    19.269319 
Au     7.375000    14.477058    19.269319 
Au    10.325000     4.257958    19.269319 
Au    10.325000    14.477058    19.269319 
Au    13.275000     9.367508    19.269319 
Au    16.225000     9.367508    19.269319 
Au    19.175000     9.367508    19.269319 
Au    22.125000     4.257958    19.269319 
Au     5.900000    17.031833    19.269319 
Au     8.850000    17.031833    19.269319 
Au    11.800000    17.031833    19.269319 
Au    14.750000    11.922283    19.269319 
Au    14.750000    17.031833    19.269319 
Au    17.700000    11.922283    19.269319 
Au    17.700000    17.031833    19.269319 
Au    20.650000    11.922283    19.269319 
Au    20.650000    17.031833    19.269319 
Au    23.600000     6.812733    19.269319 
Au    23.600000    11.922283    19.269319 
Au    23.600000    17.031833    19.269319 
Au     4.425000    19.586608    19.269319 
Au     7.375000    19.586608    19.269319 
Au    10.325000    19.586608    19.269319 
Au    13.275000    14.477058    19.269319 
Au    13.275000    19.586608    19.269319 
Au    16.225000    14.477058    19.269319 
Au    16.225000    19.586608    19.269319 
Au    19.175000    14.477058    19.269319 
Au    19.175000    19.586608    19.269319 
Au    22.125000     9.367508    19.269319 
Au    22.125000    14.477058    19.269319 
Au    22.125000    19.586608    19.269319 
Au     1.475000    12.773875    21.677984 
Au     4.425000    12.773875    21.677984 
Au     7.375000     7.664325    21.677984 
Au    10.325000     7.664325    21.677984 
Au    13.275000     7.664325    21.677984 
Au    16.225000     2.554775    21.677984 
Au    19.175000     2.554775    21.677984 
Au    22.125000     2.554775    21.677984 
Au     1.475000     2.554775    21.677984 
Au     1.475000     7.664325    21.677984 
Au     1.475000    17.883425    21.677984 
Au     4.425000     2.554775    21.677984 
Au     4.425000     7.664325    21.677984 
Au     7.375000     2.554775    21.677984 
Au     7.375000    12.773875    21.677984 
Au    10.325000     2.554775    21.677984 
Au    10.325000    12.773875    21.677984 
Au    13.275000     2.554775    21.677984 
Au    16.225000     7.664325    21.677984 
Au    19.175000     7.664325    21.677984 
Au    10.325000    17.883425    21.677984 
Au    13.275000    17.883425    21.677984 
Au    16.225000    17.883425    21.677984 
Au    19.175000    12.773875    21.677984 
Au    19.175000    17.883425    21.677984 
Au    22.125000    12.773875    21.677984 
Au    22.125000    17.883425    21.677984 
Au     4.425000    17.883425    21.677984 
Au     7.375000    17.883425    21.677984 
Au    13.275000    12.773875    21.677984 
Au    16.225000    12.773875    21.677984 
Au    22.125000     7.664325    21.677984 
K_POINTS (automatic)
3 3 1 1 1 0

