&CONTROL
calculation='scf'
prefix='SiO2_OR_72_2'
restart_mode='from_scratch'
title="'srtio_bulk'"
tprnfor=.true.
forc_conv_thr=3.d-5
PSEUDO_DIR='./'
verbosity='high'
nstep=350
/
&SYSTEM
IBRAV=8
celldm(1) = 18.572235754766361
celldm(2)=  0.86602540
celldm(3) = 1.09991860 
NAT=72
ntyp=2
ECUTWFC=40
ecutrho=250
occupations='fixed'
/
&ELECTRONS
startingpot='file'
conv_thr=1e-10
/
&ions
/
&cell
/
ATOMIC_SPECIES
'Si'    47.867     'Si.pbesol-n-rrkjus_psl.0.1.UPF'
'O'      15.9994     'O.pbesol-n-rrkjus_psl.0.1.UPF' 
ATOMIC_POSITIONS alat
Si       0.235574777   0.000000000   0.000000000
Si       0.735574011   0.000000000   0.000000000
Si       0.483742593   0.433012700   0.000000000
Si       0.983742752   0.433012700   0.000000000
O        0.139933012   0.746819139   0.059278336
O        0.639933286   0.746819435   0.059278129
O        0.389958452   0.315536278   0.066483459
O        0.889958500   0.315536373   0.066483396
O        0.329517494   0.059591174   0.121212204
O        0.829517801   0.059591494   0.121212489
O        0.078099863   0.495120312   0.119598986
O        0.578100102   0.495120603   0.119599174
Si       0.383022339   0.201281201   0.184916796
Si       0.883022014   0.201281037   0.184917049
Si       0.132511334   0.636857470   0.181402976
Si       0.632510477   0.636857269   0.181402924
O        0.031065549   0.175723768   0.250838024
O        0.531065761   0.175723823   0.250838168
O        0.281233603   0.613977201   0.246305063
O        0.781234354   0.613977230   0.246305508
O        0.031064947   0.690301737   0.299121764
O        0.531065162   0.690301678   0.299121614
O        0.281233012   0.252048269   0.303654760
O        0.781233771   0.252048240   0.303654320
Si       0.383022468   0.664744132   0.365041606
Si       0.883022146   0.664744307   0.365041355
Si       0.132511522   0.229167763   0.368555400
Si       0.632510654   0.229167962   0.368555458
O        0.329517350   0.806434473   0.428747327
O        0.829517665   0.806434155   0.428747045
O        0.078099657   0.370905429   0.430360574
O        0.578099891   0.370905137   0.430360385
O        0.139933104   0.119206005   0.490681226
O        0.639933369   0.119205702   0.490681432
O        0.389958564   0.550488794   0.483476118
O        0.889958613   0.550488693   0.483476187
Si       0.235574786   0.000000000   0.549959300
Si       0.735574019   0.000000000   0.549959300
Si       0.483742630   0.433012700   0.549959300
Si       0.983742781   0.433012700   0.549959300
O        0.139933104   0.746819405   0.609237374
O        0.639933369   0.746819708   0.609237168
O        0.389958564   0.315536606   0.616442482
O        0.889958613   0.315536707   0.616442413
O        0.329517350   0.059590927   0.671171273
O        0.829517665   0.059591245   0.671171555
O        0.078099657   0.495119971   0.669558026
O        0.578099891   0.495120263   0.669558215
Si       0.383022468   0.201281268   0.734876994
Si       0.883022146   0.201281093   0.734877245
Si       0.132511522   0.636857637   0.731363200
Si       0.632510654   0.636857438   0.731363142
O        0.031064947   0.175723673   0.800796836
O        0.531065162   0.175723732   0.800796986
O        0.281233012   0.613977131   0.796263840
O        0.781233771   0.613977160   0.796264280
O        0.031065549   0.690301642   0.849080576
O        0.531065761   0.690301587   0.849080432
O        0.281233603   0.252048199   0.853613537
O        0.781234354   0.252048170   0.853613092
Si       0.383022339   0.664744199   0.915001804
Si       0.883022014   0.664744363   0.915001551
Si       0.132511334   0.229167930   0.918515624
Si       0.632510477   0.229168131   0.918515676
O        0.329517494   0.806434226   0.978706396
O        0.829517801   0.806433906   0.978706111
O        0.078099863   0.370905088   0.980319614
O        0.578100102   0.370904797   0.980319426
O        0.139933012   0.119206271   1.040640264
O        0.639933286   0.119205975   1.040640471
O        0.389958452   0.550489122   1.033435141
O        0.889958500   0.550489027   1.033435204
K_POINTS automatic
2 4 2 1 1 1
