&CONTROL
calculation='scf'
prefix='SiO2_OR_288_us'
restart_mode='from_scratch'
title="'srtio_bulk'"
tprnfor=.true.
forc_conv_thr=3.d-5
PSEUDO_DIR='./'
verbosity='high'
nstep=350
/
&SYSTEM
IBRAV=8
celldm(1) = 18.572235754766361
celldm(2)=  1.73205081
celldm(3) = 2.1998372 
NAT=288
ntyp=2
ECUTWFC=40
ecutrho=320
occupations='fixed'
/
&ELECTRONS
startingpot='atomic'
conv_thr=1e-10
/
&ions
/
&cell
/
ATOMIC_SPECIES
'Si'    47.867     'Si.pbesol-n-rrkjus_psl.0.1.UPF'
'O'      15.9994     'O.pbesol-n-rrkjus_psl.0.1.UPF' 
ATOMIC_POSITIONS alat
Si  0.2345674   0.0000000   0.0000000 
Si  0.2345674   0.8660254   0.0000000 
Si  0.7345674   0.0000000   0.0000000 
Si  0.7345674   0.8660254   0.0000000 
Si  0.4845674   0.4330127   0.0000000 
Si  0.4845674   1.2990381   0.0000000 
Si  0.9845674   0.4330127   0.0000000 
Si  0.9845674   1.2990381   0.0000000 
O   0.1393135   0.7487106   0.0636252 
O   0.1393135   1.6147360   0.0636252 
O   0.6393135   0.7487106   0.0636252 
O   0.6393135   1.6147360   0.0636252 
O   0.3893135   0.3156979   0.0636252 
O   0.3893135   1.1817233   0.0636252 
O   0.8893135   0.3156979   0.0636252 
O   0.8893135   1.1817233   0.0636252 
O   0.3287456   0.0619916   0.1196945 
O   0.3287456   0.9280170   0.1196945 
O   0.8287456   0.0619916   0.1196945 
O   0.8287456   0.9280170   0.1196945 
O   0.0787456   0.4950043   0.1196945 
O   0.0787456   1.3610297   0.1196945 
O   0.5787456   0.4950043   0.1196945 
O   0.5787456   1.3610297   0.1196945 
Si  0.3827163   0.2031413   0.1833198 
Si  0.3827163   1.0691667   0.1833198 
Si  0.8827163   0.2031413   0.1833198 
Si  0.8827163   1.0691667   0.1833198 
Si  0.1327163   0.6361540   0.1833198 
Si  0.1327163   1.5021794   0.1833198 
Si  0.6327163   0.6361540   0.1833198 
Si  0.6327163   1.5021794   0.1833198 
O   0.0319409   0.1793064   0.2469450 
O   0.0319409   1.0453318   0.2469450 
O   0.5319409   0.1793064   0.2469450 
O   0.5319409   1.0453318   0.2469450 
O   0.2819409   0.6123191   0.2469450 
O   0.2819409   1.4783445   0.2469450 
O   0.7819409   0.6123191   0.2469450 
O   0.7819409   1.4783445   0.2469450 
O   0.0319409   0.6867190   0.3030143 
O   0.0319409   1.5527444   0.3030143 
O   0.5319409   0.6867190   0.3030143 
O   0.5319409   1.5527444   0.3030143 
O   0.2819409   0.2537063   0.3030143 
O   0.2819409   1.1197317   0.3030143 
O   0.7819409   0.2537063   0.3030143 
O   0.7819409   1.1197317   0.3030143 
Si  0.3827163   0.6628841   0.3666395 
Si  0.3827163   1.5289095   0.3666395 
Si  0.8827163   0.6628841   0.3666395 
Si  0.8827163   1.5289095   0.3666395 
Si  0.1327163   0.2298714   0.3666395 
Si  0.1327163   1.0958968   0.3666395 
Si  0.6327163   0.2298714   0.3666395 
Si  0.6327163   1.0958968   0.3666395 
O   0.3287456   0.8040338   0.4302648 
O   0.3287456   1.6700592   0.4302648 
O   0.8287456   0.8040338   0.4302648 
O   0.8287456   1.6700592   0.4302648 
O   0.0787456   0.3710211   0.4302648 
O   0.0787456   1.2370465   0.4302648 
O   0.5787456   0.3710211   0.4302648 
O   0.5787456   1.2370465   0.4302648 
O   0.1393135   0.1173148   0.4863341 
O   0.1393135   0.9833403   0.4863341 
O   0.6393135   0.1173148   0.4863341 
O   0.6393135   0.9833403   0.4863341 
O   0.3893135   0.5503275   0.4863341 
O   0.3893135   1.4163530   0.4863341 
O   0.8893135   0.5503275   0.4863341 
O   0.8893135   1.4163530   0.4863341 
Si  0.2345674   0.0000000   0.5499593 
Si  0.2345674   0.8660254   0.5499593 
Si  0.7345674   0.0000000   0.5499593 
Si  0.7345674   0.8660254   0.5499593 
Si  0.4845674   0.4330127   0.5499593 
Si  0.4845674   1.2990381   0.5499593 
Si  0.9845674   0.4330127   0.5499593 
Si  0.9845674   1.2990381   0.5499593 
O   0.1393135   0.7487106   0.6135845 
O   0.1393135   1.6147360   0.6135845 
O   0.6393135   0.7487106   0.6135845 
O   0.6393135   1.6147360   0.6135845 
O   0.3893135   0.3156979   0.6135845 
O   0.3893135   1.1817233   0.6135845 
O   0.8893135   0.3156979   0.6135845 
O   0.8893135   1.1817233   0.6135845 
O   0.3287456   0.0619916   0.6696538 
O   0.3287456   0.9280170   0.6696538 
O   0.8287456   0.0619916   0.6696538 
O   0.8287456   0.9280170   0.6696538 
O   0.0787456   0.4950043   0.6696538 
O   0.0787456   1.3610297   0.6696538 
O   0.5787456   0.4950043   0.6696538 
O   0.5787456   1.3610297   0.6696538 
Si  0.3827163   0.2031413   0.7332791 
Si  0.3827163   1.0691667   0.7332791 
Si  0.8827163   0.2031413   0.7332791 
Si  0.8827163   1.0691667   0.7332791 
Si  0.1327163   0.6361540   0.7332791 
Si  0.1327163   1.5021794   0.7332791 
Si  0.6327163   0.6361540   0.7332791 
Si  0.6327163   1.5021794   0.7332791 
O   0.0319409   0.1793064   0.7969043 
O   0.0319409   1.0453318   0.7969043 
O   0.5319409   0.1793064   0.7969043 
O   0.5319409   1.0453318   0.7969043 
O   0.2819409   0.6123191   0.7969043 
O   0.2819409   1.4783445   0.7969043 
O   0.7819409   0.6123191   0.7969043 
O   0.7819409   1.4783445   0.7969043 
O   0.0319409   0.6867190   0.8529736 
O   0.0319409   1.5527444   0.8529736 
O   0.5319409   0.6867190   0.8529736 
O   0.5319409   1.5527444   0.8529736 
O   0.2819409   0.2537063   0.8529736 
O   0.2819409   1.1197317   0.8529736 
O   0.7819409   0.2537063   0.8529736 
O   0.7819409   1.1197317   0.8529736 
Si  0.3827163   0.6628841   0.9165988 
Si  0.3827163   1.5289095   0.9165988 
Si  0.8827163   0.6628841   0.9165988 
Si  0.8827163   1.5289095   0.9165988 
Si  0.1327163   0.2298714   0.9165988 
Si  0.1327163   1.0958968   0.9165988 
Si  0.6327163   0.2298714   0.9165988 
Si  0.6327163   1.0958968   0.9165988 
O   0.3287456   0.8040338   0.9802241 
O   0.3287456   1.6700592   0.9802241 
O   0.8287456   0.8040338   0.9802241 
O   0.8287456   1.6700592   0.9802241 
O   0.0787456   0.3710211   0.9802241 
O   0.0787456   1.2370465   0.9802241 
O   0.5787456   0.3710211   0.9802241 
O   0.5787456   1.2370465   0.9802241 
O   0.1393135   0.1173148   1.0362934 
O   0.1393135   0.9833403   1.0362934 
O   0.6393135   0.1173148   1.0362934 
O   0.6393135   0.9833403   1.0362934 
O   0.3893135   0.5503275   1.0362934 
O   0.3893135   1.4163530   1.0362934 
O   0.8893135   0.5503275   1.0362934 
O   0.8893135   1.4163530   1.0362934 
Si  0.2345674   0.0000000   1.0999186 
Si  0.2345674   0.8660254   1.0999186 
Si  0.7345674   0.0000000   1.0999186 
Si  0.7345674   0.8660254   1.0999186 
Si  0.4845674   0.4330127   1.0999186 
Si  0.4845674   1.2990381   1.0999186 
Si  0.9845674   0.4330127   1.0999186 
Si  0.9845674   1.2990381   1.0999186 
O   0.1393135   0.7487106   1.1635438 
O   0.1393135   1.6147360   1.1635438 
O   0.6393135   0.7487106   1.1635438 
O   0.6393135   1.6147360   1.1635438 
O   0.3893135   0.3156979   1.1635438 
O   0.3893135   1.1817233   1.1635438 
O   0.8893135   0.3156979   1.1635438 
O   0.8893135   1.1817233   1.1635438 
O   0.3287456   0.0619916   1.2196131 
O   0.3287456   0.9280170   1.2196131 
O   0.8287456   0.0619916   1.2196131 
O   0.8287456   0.9280170   1.2196131 
O   0.0787456   0.4950043   1.2196131 
O   0.0787456   1.3610297   1.2196131 
O   0.5787456   0.4950043   1.2196131 
O   0.5787456   1.3610297   1.2196131 
Si  0.3827163   0.2031413   1.2832384 
Si  0.3827163   1.0691667   1.2832384 
Si  0.8827163   0.2031413   1.2832384 
Si  0.8827163   1.0691667   1.2832384 
Si  0.1327163   0.6361540   1.2832384 
Si  0.1327163   1.5021794   1.2832384 
Si  0.6327163   0.6361540   1.2832384 
Si  0.6327163   1.5021794   1.2832384 
O   0.0319409   0.1793064   1.3468636 
O   0.0319409   1.0453318   1.3468636 
O   0.5319409   0.1793064   1.3468636 
O   0.5319409   1.0453318   1.3468636 
O   0.2819409   0.6123191   1.3468636 
O   0.2819409   1.4783445   1.3468636 
O   0.7819409   0.6123191   1.3468636 
O   0.7819409   1.4783445   1.3468636 
O   0.0319409   0.6867190   1.4029329 
O   0.0319409   1.5527444   1.4029329 
O   0.5319409   0.6867190   1.4029329 
O   0.5319409   1.5527444   1.4029329 
O   0.2819409   0.2537063   1.4029329 
O   0.2819409   1.1197317   1.4029329 
O   0.7819409   0.2537063   1.4029329 
O   0.7819409   1.1197317   1.4029329 
Si  0.3827163   0.6628841   1.4665581 
Si  0.3827163   1.5289095   1.4665581 
Si  0.8827163   0.6628841   1.4665581 
Si  0.8827163   1.5289095   1.4665581 
Si  0.1327163   0.2298714   1.4665581 
Si  0.1327163   1.0958968   1.4665581 
Si  0.6327163   0.2298714   1.4665581 
Si  0.6327163   1.0958968   1.4665581 
O   0.3287456   0.8040338   1.5301834 
O   0.3287456   1.6700592   1.5301834 
O   0.8287456   0.8040338   1.5301834 
O   0.8287456   1.6700592   1.5301834 
O   0.0787456   0.3710211   1.5301834 
O   0.0787456   1.2370465   1.5301834 
O   0.5787456   0.3710211   1.5301834 
O   0.5787456   1.2370465   1.5301834 
O   0.1393135   0.1173148   1.5862527 
O   0.1393135   0.9833403   1.5862527 
O   0.6393135   0.1173148   1.5862527 
O   0.6393135   0.9833403   1.5862527 
O   0.3893135   0.5503275   1.5862527 
O   0.3893135   1.4163530   1.5862527 
O   0.8893135   0.5503275   1.5862527 
O   0.8893135   1.4163530   1.5862527 
Si  0.2345674   0.0000000   1.6498779 
Si  0.2345674   0.8660254   1.6498779 
Si  0.7345674   0.0000000   1.6498779 
Si  0.7345674   0.8660254   1.6498779 
Si  0.4845674   0.4330127   1.6498779 
Si  0.4845674   1.2990381   1.6498779 
Si  0.9845674   0.4330127   1.6498779 
Si  0.9845674   1.2990381   1.6498779 
O   0.1393135   0.7487106   1.7135031 
O   0.1393135   1.6147360   1.7135031 
O   0.6393135   0.7487106   1.7135031 
O   0.6393135   1.6147360   1.7135031 
O   0.3893135   0.3156979   1.7135031 
O   0.3893135   1.1817233   1.7135031 
O   0.8893135   0.3156979   1.7135031 
O   0.8893135   1.1817233   1.7135031 
O   0.3287456   0.0619916   1.7695724 
O   0.3287456   0.9280170   1.7695724 
O   0.8287456   0.0619916   1.7695724 
O   0.8287456   0.9280170   1.7695724 
O   0.0787456   0.4950043   1.7695724 
O   0.0787456   1.3610297   1.7695724 
O   0.5787456   0.4950043   1.7695724 
O   0.5787456   1.3610297   1.7695724 
Si  0.3827163   0.2031413   1.8331977 
Si  0.3827163   1.0691667   1.8331977 
Si  0.8827163   0.2031413   1.8331977 
Si  0.8827163   1.0691667   1.8331977 
Si  0.1327163   0.6361540   1.8331977 
Si  0.1327163   1.5021794   1.8331977 
Si  0.6327163   0.6361540   1.8331977 
Si  0.6327163   1.5021794   1.8331977 
O   0.0319409   0.1793064   1.8968229 
O   0.0319409   1.0453318   1.8968229 
O   0.5319409   0.1793064   1.8968229 
O   0.5319409   1.0453318   1.8968229 
O   0.2819409   0.6123191   1.8968229 
O   0.2819409   1.4783445   1.8968229 
O   0.7819409   0.6123191   1.8968229 
O   0.7819409   1.4783445   1.8968229 
O   0.0319409   0.6867190   1.9528922 
O   0.0319409   1.5527444   1.9528922 
O   0.5319409   0.6867190   1.9528922 
O   0.5319409   1.5527444   1.9528922 
O   0.2819409   0.2537063   1.9528922 
O   0.2819409   1.1197317   1.9528922 
O   0.7819409   0.2537063   1.9528922 
O   0.7819409   1.1197317   1.9528922 
Si  0.3827163   0.6628841   2.0165174 
Si  0.3827163   1.5289095   2.0165174 
Si  0.8827163   0.6628841   2.0165174 
Si  0.8827163   1.5289095   2.0165174 
Si  0.1327163   0.2298714   2.0165174 
Si  0.1327163   1.0958968   2.0165174 
Si  0.6327163   0.2298714   2.0165174 
Si  0.6327163   1.0958968   2.0165174 
O   0.3287456   0.8040338   2.0801427 
O   0.3287456   1.6700592   2.0801427 
O   0.8287456   0.8040338   2.0801427 
O   0.8287456   1.6700592   2.0801427 
O   0.0787456   0.3710211   2.0801427 
O   0.0787456   1.2370465   2.0801427 
O   0.5787456   0.3710211   2.0801427 
O   0.5787456   1.2370465   2.0801427 
O   0.1393135   0.1173148   2.1362120 
O   0.1393135   0.9833403   2.1362120 
O   0.6393135   0.1173148   2.1362120 
O   0.6393135   0.9833403   2.1362120 
O   0.3893135   0.5503275   2.1362120 
O   0.3893135   1.4163530   2.1362120 
O   0.8893135   0.5503275   2.1362120 
O   0.8893135   1.4163530   2.1362120 
K_POINTS automatic
2 2 2 1 1 1
