&CONTROL
calculation='scf'
restart_mode='from_scratch'
prefix='SiO2_OR_576_us'
tprnfor=.true.
forc_conv_thr=3.d-5
PSEUDO_DIR='./'
verbosity='high'
nstep=350
/
&SYSTEM
IBRAV=8
celldm(1) = 37.1444715
celldm(2) = 0.86602540 
celldm(3) = 1.09991860 
NAT=576
ntyp=2
ECUTWFC=40
ecutrho=320
occupations='fixed'
/
&ELECTRONS
startingpot='atomic'
conv_thr=1e-10
/
&ions
/
&cell
/
ATOMIC_SPECIES
'Si'    47.867       'Si.pbesol-n-rrkjus_psl.0.1.UPF'
'O'      15.9994     'O.pbesol-n-rrkjus_psl.0.1.UPF' 
ATOMIC_POSITIONS alat
Si     0.11728370     0.00000000     0.00000000 
Si     0.11728370     0.43301270     0.00000000 
Si     0.36728370     0.00000000     0.00000000 
Si     0.36728370     0.43301270     0.00000000 
Si     0.61728370     0.00000000     0.00000000 
Si     0.61728370     0.43301270     0.00000000 
Si     0.86728370     0.00000000     0.00000000 
Si     0.86728370     0.43301270     0.00000000 
Si     0.24228370     0.21650635     0.00000000 
Si     0.24228370     0.64951905     0.00000000 
Si     0.49228370     0.21650635     0.00000000 
Si     0.49228370     0.64951905     0.00000000 
Si     0.74228370     0.21650635     0.00000000 
Si     0.74228370     0.64951905     0.00000000 
Si     0.99228370     0.21650635     0.00000000 
Si     0.99228370     0.64951905     0.00000000 
O      0.06965674     0.37435528     0.03181262 
O      0.06965674     0.80736798     0.03181262 
O      0.31965674     0.37435528     0.03181262 
O      0.31965674     0.80736798     0.03181262 
O      0.56965674     0.37435528     0.03181262 
O      0.56965674     0.80736798     0.03181262 
O      0.81965674     0.37435528     0.03181262 
O      0.81965674     0.80736798     0.03181262 
O      0.19465674     0.15784893     0.03181262 
O      0.19465674     0.59086163     0.03181262 
O      0.44465674     0.15784893     0.03181262 
O      0.44465674     0.59086163     0.03181262 
O      0.69465674     0.15784893     0.03181262 
O      0.69465674     0.59086163     0.03181262 
O      0.94465674     0.15784893     0.03181262 
O      0.94465674     0.59086163     0.03181262 
O      0.16437281     0.03099580     0.05984727 
O      0.16437281     0.46400850     0.05984727 
O      0.41437281     0.03099580     0.05984727 
O      0.41437281     0.46400850     0.05984727 
O      0.66437281     0.03099580     0.05984727 
O      0.66437281     0.46400850     0.05984727 
O      0.91437281     0.03099580     0.05984727 
O      0.91437281     0.46400850     0.05984727 
O      0.03937281     0.24750215     0.05984727 
O      0.03937281     0.68051485     0.05984727 
O      0.28937281     0.24750215     0.05984727 
O      0.28937281     0.68051485     0.05984727 
O      0.53937281     0.24750215     0.05984727 
O      0.53937281     0.68051485     0.05984727 
O      0.78937281     0.24750215     0.05984727 
O      0.78937281     0.68051485     0.05984727 
Si     0.19135815     0.10157067     0.09165988 
Si     0.19135815     0.53458337     0.09165988 
Si     0.44135815     0.10157067     0.09165988 
Si     0.44135815     0.53458337     0.09165988 
Si     0.69135815     0.10157067     0.09165988 
Si     0.69135815     0.53458337     0.09165988 
Si     0.94135815     0.10157067     0.09165988 
Si     0.94135815     0.53458337     0.09165988 
Si     0.06635815     0.31807702     0.09165988 
Si     0.06635815     0.75108972     0.09165988 
Si     0.31635815     0.31807702     0.09165988 
Si     0.31635815     0.75108972     0.09165988 
Si     0.56635815     0.31807702     0.09165988 
Si     0.56635815     0.75108972     0.09165988 
Si     0.81635815     0.31807702     0.09165988 
Si     0.81635815     0.75108972     0.09165988 
O      0.01597045     0.08965322     0.12347250 
O      0.01597045     0.52266592     0.12347250 
O      0.26597045     0.08965322     0.12347250 
O      0.26597045     0.52266592     0.12347250 
O      0.51597045     0.08965322     0.12347250 
O      0.51597045     0.52266592     0.12347250 
O      0.76597045     0.08965322     0.12347250 
O      0.76597045     0.52266592     0.12347250 
O      0.14097045     0.30615957     0.12347250 
O      0.14097045     0.73917227     0.12347250 
O      0.39097045     0.30615957     0.12347250 
O      0.39097045     0.73917227     0.12347250 
O      0.64097045     0.30615957     0.12347250 
O      0.64097045     0.73917227     0.12347250 
O      0.89097045     0.30615957     0.12347250 
O      0.89097045     0.73917227     0.12347250 
O      0.01597045     0.34335948     0.15150715 
O      0.01597045     0.77637218     0.15150715 
O      0.26597045     0.34335948     0.15150715 
O      0.26597045     0.77637218     0.15150715 
O      0.51597045     0.34335948     0.15150715 
O      0.51597045     0.77637218     0.15150715 
O      0.76597045     0.34335948     0.15150715 
O      0.76597045     0.77637218     0.15150715 
O      0.14097045     0.12685313     0.15150715 
O      0.14097045     0.55986583     0.15150715 
O      0.39097045     0.12685313     0.15150715 
O      0.39097045     0.55986583     0.15150715 
O      0.64097045     0.12685313     0.15150715 
O      0.64097045     0.55986583     0.15150715 
O      0.89097045     0.12685313     0.15150715 
O      0.89097045     0.55986583     0.15150715 
Si     0.19135815     0.33144204     0.18331977 
Si     0.19135815     0.76445474     0.18331977 
Si     0.44135815     0.33144204     0.18331977 
Si     0.44135815     0.76445474     0.18331977 
Si     0.69135815     0.33144204     0.18331977 
Si     0.69135815     0.76445474     0.18331977 
Si     0.94135815     0.33144204     0.18331977 
Si     0.94135815     0.76445474     0.18331977 
Si     0.06635815     0.11493569     0.18331977 
Si     0.06635815     0.54794839     0.18331977 
Si     0.31635815     0.11493569     0.18331977 
Si     0.31635815     0.54794839     0.18331977 
Si     0.56635815     0.11493569     0.18331977 
Si     0.56635815     0.54794839     0.18331977 
Si     0.81635815     0.11493569     0.18331977 
Si     0.81635815     0.54794839     0.18331977 
O      0.16437281     0.40201691     0.21513238 
O      0.16437281     0.83502961     0.21513238 
O      0.41437281     0.40201691     0.21513238 
O      0.41437281     0.83502961     0.21513238 
O      0.66437281     0.40201691     0.21513238 
O      0.66437281     0.83502961     0.21513238 
O      0.91437281     0.40201691     0.21513238 
O      0.91437281     0.83502961     0.21513238 
O      0.03937281     0.18551056     0.21513238 
O      0.03937281     0.61852326     0.21513238 
O      0.28937281     0.18551056     0.21513238 
O      0.28937281     0.61852326     0.21513238 
O      0.53937281     0.18551056     0.21513238 
O      0.53937281     0.61852326     0.21513238 
O      0.78937281     0.18551056     0.21513238 
O      0.78937281     0.61852326     0.21513238 
O      0.06965674     0.05865742     0.24316703 
O      0.06965674     0.49167013     0.24316703 
O      0.31965674     0.05865742     0.24316703 
O      0.31965674     0.49167013     0.24316703 
O      0.56965674     0.05865742     0.24316703 
O      0.56965674     0.49167013     0.24316703 
O      0.81965674     0.05865742     0.24316703 
O      0.81965674     0.49167013     0.24316703 
O      0.19465674     0.27516377     0.24316703 
O      0.19465674     0.70817648     0.24316703 
O      0.44465674     0.27516377     0.24316703 
O      0.44465674     0.70817648     0.24316703 
O      0.69465674     0.27516377     0.24316703 
O      0.69465674     0.70817648     0.24316703 
O      0.94465674     0.27516377     0.24316703 
O      0.94465674     0.70817648     0.24316703 
Si     0.11728370     0.00000000     0.27497965 
Si     0.11728370     0.43301270     0.27497965 
Si     0.36728370     0.00000000     0.27497965 
Si     0.36728370     0.43301270     0.27497965 
Si     0.61728370     0.00000000     0.27497965 
Si     0.61728370     0.43301270     0.27497965 
Si     0.86728370     0.00000000     0.27497965 
Si     0.86728370     0.43301270     0.27497965 
Si     0.24228370     0.21650635     0.27497965 
Si     0.24228370     0.64951905     0.27497965 
Si     0.49228370     0.21650635     0.27497965 
Si     0.49228370     0.64951905     0.27497965 
Si     0.74228370     0.21650635     0.27497965 
Si     0.74228370     0.64951905     0.27497965 
Si     0.99228370     0.21650635     0.27497965 
Si     0.99228370     0.64951905     0.27497965 
O      0.06965674     0.37435528     0.30679227 
O      0.06965674     0.80736798     0.30679227 
O      0.31965674     0.37435528     0.30679227 
O      0.31965674     0.80736798     0.30679227 
O      0.56965674     0.37435528     0.30679227 
O      0.56965674     0.80736798     0.30679227 
O      0.81965674     0.37435528     0.30679227 
O      0.81965674     0.80736798     0.30679227 
O      0.19465674     0.15784893     0.30679227 
O      0.19465674     0.59086163     0.30679227 
O      0.44465674     0.15784893     0.30679227 
O      0.44465674     0.59086163     0.30679227 
O      0.69465674     0.15784893     0.30679227 
O      0.69465674     0.59086163     0.30679227 
O      0.94465674     0.15784893     0.30679227 
O      0.94465674     0.59086163     0.30679227 
O      0.16437281     0.03099580     0.33482692 
O      0.16437281     0.46400850     0.33482692 
O      0.41437281     0.03099580     0.33482692 
O      0.41437281     0.46400850     0.33482692 
O      0.66437281     0.03099580     0.33482692 
O      0.66437281     0.46400850     0.33482692 
O      0.91437281     0.03099580     0.33482692 
O      0.91437281     0.46400850     0.33482692 
O      0.03937281     0.24750215     0.33482692 
O      0.03937281     0.68051485     0.33482692 
O      0.28937281     0.24750215     0.33482692 
O      0.28937281     0.68051485     0.33482692 
O      0.53937281     0.24750215     0.33482692 
O      0.53937281     0.68051485     0.33482692 
O      0.78937281     0.24750215     0.33482692 
O      0.78937281     0.68051485     0.33482692 
Si     0.19135815     0.10157067     0.36663953 
Si     0.19135815     0.53458337     0.36663953 
Si     0.44135815     0.10157067     0.36663953 
Si     0.44135815     0.53458337     0.36663953 
Si     0.69135815     0.10157067     0.36663953 
Si     0.69135815     0.53458337     0.36663953 
Si     0.94135815     0.10157067     0.36663953 
Si     0.94135815     0.53458337     0.36663953 
Si     0.06635815     0.31807702     0.36663953 
Si     0.06635815     0.75108972     0.36663953 
Si     0.31635815     0.31807702     0.36663953 
Si     0.31635815     0.75108972     0.36663953 
Si     0.56635815     0.31807702     0.36663953 
Si     0.56635815     0.75108972     0.36663953 
Si     0.81635815     0.31807702     0.36663953 
Si     0.81635815     0.75108972     0.36663953 
O      0.01597045     0.08965322     0.39845215 
O      0.01597045     0.52266592     0.39845215 
O      0.26597045     0.08965322     0.39845215 
O      0.26597045     0.52266592     0.39845215 
O      0.51597045     0.08965322     0.39845215 
O      0.51597045     0.52266592     0.39845215 
O      0.76597045     0.08965322     0.39845215 
O      0.76597045     0.52266592     0.39845215 
O      0.14097045     0.30615957     0.39845215 
O      0.14097045     0.73917227     0.39845215 
O      0.39097045     0.30615957     0.39845215 
O      0.39097045     0.73917227     0.39845215 
O      0.64097045     0.30615957     0.39845215 
O      0.64097045     0.73917227     0.39845215 
O      0.89097045     0.30615957     0.39845215 
O      0.89097045     0.73917227     0.39845215 
O      0.01597045     0.34335948     0.42648680 
O      0.01597045     0.77637218     0.42648680 
O      0.26597045     0.34335948     0.42648680 
O      0.26597045     0.77637218     0.42648680 
O      0.51597045     0.34335948     0.42648680 
O      0.51597045     0.77637218     0.42648680 
O      0.76597045     0.34335948     0.42648680 
O      0.76597045     0.77637218     0.42648680 
O      0.14097045     0.12685313     0.42648680 
O      0.14097045     0.55986583     0.42648680 
O      0.39097045     0.12685313     0.42648680 
O      0.39097045     0.55986583     0.42648680 
O      0.64097045     0.12685313     0.42648680 
O      0.64097045     0.55986583     0.42648680 
O      0.89097045     0.12685313     0.42648680 
O      0.89097045     0.55986583     0.42648680 
Si     0.19135815     0.33144204     0.45829942 
Si     0.19135815     0.76445474     0.45829942 
Si     0.44135815     0.33144204     0.45829942 
Si     0.44135815     0.76445474     0.45829942 
Si     0.69135815     0.33144204     0.45829942 
Si     0.69135815     0.76445474     0.45829942 
Si     0.94135815     0.33144204     0.45829942 
Si     0.94135815     0.76445474     0.45829942 
Si     0.06635815     0.11493569     0.45829942 
Si     0.06635815     0.54794839     0.45829942 
Si     0.31635815     0.11493569     0.45829942 
Si     0.31635815     0.54794839     0.45829942 
Si     0.56635815     0.11493569     0.45829942 
Si     0.56635815     0.54794839     0.45829942 
Si     0.81635815     0.11493569     0.45829942 
Si     0.81635815     0.54794839     0.45829942 
O      0.16437281     0.40201691     0.49011203 
O      0.16437281     0.83502961     0.49011203 
O      0.41437281     0.40201691     0.49011203 
O      0.41437281     0.83502961     0.49011203 
O      0.66437281     0.40201691     0.49011203 
O      0.66437281     0.83502961     0.49011203 
O      0.91437281     0.40201691     0.49011203 
O      0.91437281     0.83502961     0.49011203 
O      0.03937281     0.18551056     0.49011203 
O      0.03937281     0.61852326     0.49011203 
O      0.28937281     0.18551056     0.49011203 
O      0.28937281     0.61852326     0.49011203 
O      0.53937281     0.18551056     0.49011203 
O      0.53937281     0.61852326     0.49011203 
O      0.78937281     0.18551056     0.49011203 
O      0.78937281     0.61852326     0.49011203 
O      0.06965674     0.05865742     0.51814668 
O      0.06965674     0.49167013     0.51814668 
O      0.31965674     0.05865742     0.51814668 
O      0.31965674     0.49167013     0.51814668 
O      0.56965674     0.05865742     0.51814668 
O      0.56965674     0.49167013     0.51814668 
O      0.81965674     0.05865742     0.51814668 
O      0.81965674     0.49167013     0.51814668 
O      0.19465674     0.27516377     0.51814668 
O      0.19465674     0.70817648     0.51814668 
O      0.44465674     0.27516377     0.51814668 
O      0.44465674     0.70817648     0.51814668 
O      0.69465674     0.27516377     0.51814668 
O      0.69465674     0.70817648     0.51814668 
O      0.94465674     0.27516377     0.51814668 
O      0.94465674     0.70817648     0.51814668 
Si     0.11728370     0.00000000     0.54995930 
Si     0.11728370     0.43301270     0.54995930 
Si     0.36728370     0.00000000     0.54995930 
Si     0.36728370     0.43301270     0.54995930 
Si     0.61728370     0.00000000     0.54995930 
Si     0.61728370     0.43301270     0.54995930 
Si     0.86728370     0.00000000     0.54995930 
Si     0.86728370     0.43301270     0.54995930 
Si     0.24228370     0.21650635     0.54995930 
Si     0.24228370     0.64951905     0.54995930 
Si     0.49228370     0.21650635     0.54995930 
Si     0.49228370     0.64951905     0.54995930 
Si     0.74228370     0.21650635     0.54995930 
Si     0.74228370     0.64951905     0.54995930 
Si     0.99228370     0.21650635     0.54995930 
Si     0.99228370     0.64951905     0.54995930 
O      0.06965674     0.37435528     0.58177192 
O      0.06965674     0.80736798     0.58177192 
O      0.31965674     0.37435528     0.58177192 
O      0.31965674     0.80736798     0.58177192 
O      0.56965674     0.37435528     0.58177192 
O      0.56965674     0.80736798     0.58177192 
O      0.81965674     0.37435528     0.58177192 
O      0.81965674     0.80736798     0.58177192 
O      0.19465674     0.15784893     0.58177192 
O      0.19465674     0.59086163     0.58177192 
O      0.44465674     0.15784893     0.58177192 
O      0.44465674     0.59086163     0.58177192 
O      0.69465674     0.15784893     0.58177192 
O      0.69465674     0.59086163     0.58177192 
O      0.94465674     0.15784893     0.58177192 
O      0.94465674     0.59086163     0.58177192 
O      0.16437281     0.03099580     0.60980657 
O      0.16437281     0.46400850     0.60980657 
O      0.41437281     0.03099580     0.60980657 
O      0.41437281     0.46400850     0.60980657 
O      0.66437281     0.03099580     0.60980657 
O      0.66437281     0.46400850     0.60980657 
O      0.91437281     0.03099580     0.60980657 
O      0.91437281     0.46400850     0.60980657 
O      0.03937281     0.24750215     0.60980657 
O      0.03937281     0.68051485     0.60980657 
O      0.28937281     0.24750215     0.60980657 
O      0.28937281     0.68051485     0.60980657 
O      0.53937281     0.24750215     0.60980657 
O      0.53937281     0.68051485     0.60980657 
O      0.78937281     0.24750215     0.60980657 
O      0.78937281     0.68051485     0.60980657 
Si     0.19135815     0.10157067     0.64161918 
Si     0.19135815     0.53458337     0.64161918 
Si     0.44135815     0.10157067     0.64161918 
Si     0.44135815     0.53458337     0.64161918 
Si     0.69135815     0.10157067     0.64161918 
Si     0.69135815     0.53458337     0.64161918 
Si     0.94135815     0.10157067     0.64161918 
Si     0.94135815     0.53458337     0.64161918 
Si     0.06635815     0.31807702     0.64161918 
Si     0.06635815     0.75108972     0.64161918 
Si     0.31635815     0.31807702     0.64161918 
Si     0.31635815     0.75108972     0.64161918 
Si     0.56635815     0.31807702     0.64161918 
Si     0.56635815     0.75108972     0.64161918 
Si     0.81635815     0.31807702     0.64161918 
Si     0.81635815     0.75108972     0.64161918 
O      0.01597045     0.08965322     0.67343180 
O      0.01597045     0.52266592     0.67343180 
O      0.26597045     0.08965322     0.67343180 
O      0.26597045     0.52266592     0.67343180 
O      0.51597045     0.08965322     0.67343180 
O      0.51597045     0.52266592     0.67343180 
O      0.76597045     0.08965322     0.67343180 
O      0.76597045     0.52266592     0.67343180 
O      0.14097045     0.30615957     0.67343180 
O      0.14097045     0.73917227     0.67343180 
O      0.39097045     0.30615957     0.67343180 
O      0.39097045     0.73917227     0.67343180 
O      0.64097045     0.30615957     0.67343180 
O      0.64097045     0.73917227     0.67343180 
O      0.89097045     0.30615957     0.67343180 
O      0.89097045     0.73917227     0.67343180 
O      0.01597045     0.34335948     0.70146645 
O      0.01597045     0.77637218     0.70146645 
O      0.26597045     0.34335948     0.70146645 
O      0.26597045     0.77637218     0.70146645 
O      0.51597045     0.34335948     0.70146645 
O      0.51597045     0.77637218     0.70146645 
O      0.76597045     0.34335948     0.70146645 
O      0.76597045     0.77637218     0.70146645 
O      0.14097045     0.12685313     0.70146645 
O      0.14097045     0.55986583     0.70146645 
O      0.39097045     0.12685313     0.70146645 
O      0.39097045     0.55986583     0.70146645 
O      0.64097045     0.12685313     0.70146645 
O      0.64097045     0.55986583     0.70146645 
O      0.89097045     0.12685313     0.70146645 
O      0.89097045     0.55986583     0.70146645 
Si     0.19135815     0.33144204     0.73327907 
Si     0.19135815     0.76445474     0.73327907 
Si     0.44135815     0.33144204     0.73327907 
Si     0.44135815     0.76445474     0.73327907 
Si     0.69135815     0.33144204     0.73327907 
Si     0.69135815     0.76445474     0.73327907 
Si     0.94135815     0.33144204     0.73327907 
Si     0.94135815     0.76445474     0.73327907 
Si     0.06635815     0.11493569     0.73327907 
Si     0.06635815     0.54794839     0.73327907 
Si     0.31635815     0.11493569     0.73327907 
Si     0.31635815     0.54794839     0.73327907 
Si     0.56635815     0.11493569     0.73327907 
Si     0.56635815     0.54794839     0.73327907 
Si     0.81635815     0.11493569     0.73327907 
Si     0.81635815     0.54794839     0.73327907 
O      0.16437281     0.40201691     0.76509168 
O      0.16437281     0.83502961     0.76509168 
O      0.41437281     0.40201691     0.76509168 
O      0.41437281     0.83502961     0.76509168 
O      0.66437281     0.40201691     0.76509168 
O      0.66437281     0.83502961     0.76509168 
O      0.91437281     0.40201691     0.76509168 
O      0.91437281     0.83502961     0.76509168 
O      0.03937281     0.18551056     0.76509168 
O      0.03937281     0.61852326     0.76509168 
O      0.28937281     0.18551056     0.76509168 
O      0.28937281     0.61852326     0.76509168 
O      0.53937281     0.18551056     0.76509168 
O      0.53937281     0.61852326     0.76509168 
O      0.78937281     0.18551056     0.76509168 
O      0.78937281     0.61852326     0.76509168 
O      0.06965674     0.05865742     0.79312633 
O      0.06965674     0.49167013     0.79312633 
O      0.31965674     0.05865742     0.79312633 
O      0.31965674     0.49167013     0.79312633 
O      0.56965674     0.05865742     0.79312633 
O      0.56965674     0.49167013     0.79312633 
O      0.81965674     0.05865742     0.79312633 
O      0.81965674     0.49167013     0.79312633 
O      0.19465674     0.27516377     0.79312633 
O      0.19465674     0.70817648     0.79312633 
O      0.44465674     0.27516377     0.79312633 
O      0.44465674     0.70817648     0.79312633 
O      0.69465674     0.27516377     0.79312633 
O      0.69465674     0.70817648     0.79312633 
O      0.94465674     0.27516377     0.79312633 
O      0.94465674     0.70817648     0.79312633 
Si     0.11728370     0.00000000     0.82493895 
Si     0.11728370     0.43301270     0.82493895 
Si     0.36728370     0.00000000     0.82493895 
Si     0.36728370     0.43301270     0.82493895 
Si     0.61728370     0.00000000     0.82493895 
Si     0.61728370     0.43301270     0.82493895 
Si     0.86728370     0.00000000     0.82493895 
Si     0.86728370     0.43301270     0.82493895 
Si     0.24228370     0.21650635     0.82493895 
Si     0.24228370     0.64951905     0.82493895 
Si     0.49228370     0.21650635     0.82493895 
Si     0.49228370     0.64951905     0.82493895 
Si     0.74228370     0.21650635     0.82493895 
Si     0.74228370     0.64951905     0.82493895 
Si     0.99228370     0.21650635     0.82493895 
Si     0.99228370     0.64951905     0.82493895 
O      0.06965674     0.37435528     0.85675157 
O      0.06965674     0.80736798     0.85675157 
O      0.31965674     0.37435528     0.85675157 
O      0.31965674     0.80736798     0.85675157 
O      0.56965674     0.37435528     0.85675157 
O      0.56965674     0.80736798     0.85675157 
O      0.81965674     0.37435528     0.85675157 
O      0.81965674     0.80736798     0.85675157 
O      0.19465674     0.15784893     0.85675157 
O      0.19465674     0.59086163     0.85675157 
O      0.44465674     0.15784893     0.85675157 
O      0.44465674     0.59086163     0.85675157 
O      0.69465674     0.15784893     0.85675157 
O      0.69465674     0.59086163     0.85675157 
O      0.94465674     0.15784893     0.85675157 
O      0.94465674     0.59086163     0.85675157 
O      0.16437281     0.03099580     0.88478622 
O      0.16437281     0.46400850     0.88478622 
O      0.41437281     0.03099580     0.88478622 
O      0.41437281     0.46400850     0.88478622 
O      0.66437281     0.03099580     0.88478622 
O      0.66437281     0.46400850     0.88478622 
O      0.91437281     0.03099580     0.88478622 
O      0.91437281     0.46400850     0.88478622 
O      0.03937281     0.24750215     0.88478622 
O      0.03937281     0.68051485     0.88478622 
O      0.28937281     0.24750215     0.88478622 
O      0.28937281     0.68051485     0.88478622 
O      0.53937281     0.24750215     0.88478622 
O      0.53937281     0.68051485     0.88478622 
O      0.78937281     0.24750215     0.88478622 
O      0.78937281     0.68051485     0.88478622 
Si     0.19135815     0.10157067     0.91659883 
Si     0.19135815     0.53458337     0.91659883 
Si     0.44135815     0.10157067     0.91659883 
Si     0.44135815     0.53458337     0.91659883 
Si     0.69135815     0.10157067     0.91659883 
Si     0.69135815     0.53458337     0.91659883 
Si     0.94135815     0.10157067     0.91659883 
Si     0.94135815     0.53458337     0.91659883 
Si     0.06635815     0.31807702     0.91659883 
Si     0.06635815     0.75108972     0.91659883 
Si     0.31635815     0.31807702     0.91659883 
Si     0.31635815     0.75108972     0.91659883 
Si     0.56635815     0.31807702     0.91659883 
Si     0.56635815     0.75108972     0.91659883 
Si     0.81635815     0.31807702     0.91659883 
Si     0.81635815     0.75108972     0.91659883 
O      0.01597045     0.08965322     0.94841145 
O      0.01597045     0.52266592     0.94841145 
O      0.26597045     0.08965322     0.94841145 
O      0.26597045     0.52266592     0.94841145 
O      0.51597045     0.08965322     0.94841145 
O      0.51597045     0.52266592     0.94841145 
O      0.76597045     0.08965322     0.94841145 
O      0.76597045     0.52266592     0.94841145 
O      0.14097045     0.30615957     0.94841145 
O      0.14097045     0.73917227     0.94841145 
O      0.39097045     0.30615957     0.94841145 
O      0.39097045     0.73917227     0.94841145 
O      0.64097045     0.30615957     0.94841145 
O      0.64097045     0.73917227     0.94841145 
O      0.89097045     0.30615957     0.94841145 
O      0.89097045     0.73917227     0.94841145 
O      0.01597045     0.34335948     0.97644610 
O      0.01597045     0.77637218     0.97644610 
O      0.26597045     0.34335948     0.97644610 
O      0.26597045     0.77637218     0.97644610 
O      0.51597045     0.34335948     0.97644610 
O      0.51597045     0.77637218     0.97644610 
O      0.76597045     0.34335948     0.97644610 
O      0.76597045     0.77637218     0.97644610 
O      0.14097045     0.12685313     0.97644610 
O      0.14097045     0.55986583     0.97644610 
O      0.39097045     0.12685313     0.97644610 
O      0.39097045     0.55986583     0.97644610 
O      0.64097045     0.12685313     0.97644610 
O      0.64097045     0.55986583     0.97644610 
O      0.89097045     0.12685313     0.97644610 
O      0.89097045     0.55986583     0.97644610 
Si     0.19135815     0.33144204     1.00825872 
Si     0.19135815     0.76445474     1.00825872 
Si     0.44135815     0.33144204     1.00825872 
Si     0.44135815     0.76445474     1.00825872 
Si     0.69135815     0.33144204     1.00825872 
Si     0.69135815     0.76445474     1.00825872 
Si     0.94135815     0.33144204     1.00825872 
Si     0.94135815     0.76445474     1.00825872 
Si     0.06635815     0.11493569     1.00825872 
Si     0.06635815     0.54794839     1.00825872 
Si     0.31635815     0.11493569     1.00825872 
Si     0.31635815     0.54794839     1.00825872 
Si     0.56635815     0.11493569     1.00825872 
Si     0.56635815     0.54794839     1.00825872 
Si     0.81635815     0.11493569     1.00825872 
Si     0.81635815     0.54794839     1.00825872 
O      0.16437281     0.40201691     1.04007133 
O      0.16437281     0.83502961     1.04007133 
O      0.41437281     0.40201691     1.04007133 
O      0.41437281     0.83502961     1.04007133 
O      0.66437281     0.40201691     1.04007133 
O      0.66437281     0.83502961     1.04007133 
O      0.91437281     0.40201691     1.04007133 
O      0.91437281     0.83502961     1.04007133 
O      0.03937281     0.18551056     1.04007133 
O      0.03937281     0.61852326     1.04007133 
O      0.28937281     0.18551056     1.04007133 
O      0.28937281     0.61852326     1.04007133 
O      0.53937281     0.18551056     1.04007133 
O      0.53937281     0.61852326     1.04007133 
O      0.78937281     0.18551056     1.04007133 
O      0.78937281     0.61852326     1.04007133 
O      0.06965674     0.05865742     1.06810598 
O      0.06965674     0.49167013     1.06810598 
O      0.31965674     0.05865742     1.06810598 
O      0.31965674     0.49167013     1.06810598 
O      0.56965674     0.05865742     1.06810598 
O      0.56965674     0.49167013     1.06810598 
O      0.81965674     0.05865742     1.06810598 
O      0.81965674     0.49167013     1.06810598 
O      0.19465674     0.27516377     1.06810598 
O      0.19465674     0.70817648     1.06810598 
O      0.44465674     0.27516377     1.06810598 
O      0.44465674     0.70817648     1.06810598 
O      0.69465674     0.27516377     1.06810598 
O      0.69465674     0.70817648     1.06810598 
O      0.94465674     0.27516377     1.06810598 
O      0.94465674     0.70817648     1.06810598 
K_POINTS automatic
1 2 1 1 1 1
