 &control
    calculation  = 'scf'
    PSEUDO_DIR='/marconi/home/userexternal/czeni000/dft_src/pseudo/'
 /
 &system
    ibrav=1
    celldm(1)=29.4796,
    nat=320
    ntyp=3
    nbnd=1600,
    ecutwfc=25.0
    ecutrho=240.
 /
 &electrons
    conv_thr = 1.d-8,
    mixing_beta=0.3
 /
ATOMIC_SPECIES
  Pb   207.2      'Pb.pz-d-van.UPF'
  Ti    47.867    'Ti.pz-sp-van_ak.UPF'
  O     15.9994   'O.pz-van_ak.UPF'
ATOMIC_POSITIONS (alat)
  Pb    0.000    0.000    0.000
  Pb    0.000    0.000    0.250
  Pb    0.000    0.250    0.000
  Pb    0.000    0.250    0.250
  Pb    0.250    0.000    0.000
  Pb    0.250    0.000    0.250
  Pb    0.250    0.250    0.000
  Pb    0.250    0.250    0.250
  Ti    0.125    0.125    0.125
  Ti    0.125    0.125    0.375
  Ti    0.125    0.375    0.125
  Ti    0.125    0.375    0.375
  Ti    0.375    0.125    0.125
  Ti    0.375    0.125    0.375
  Ti    0.375    0.375    0.125
  Ti    0.375    0.375    0.375
  O     0.000    0.125    0.125
  O     0.000    0.125    0.375
  O     0.000    0.375    0.125
  O     0.000    0.375    0.375
  O     0.250    0.125    0.125
  O     0.250    0.125    0.375
  O     0.250    0.375    0.125
  O     0.250    0.375    0.375
  O     0.125    0.125    0.000
  O     0.125    0.125    0.250
  O     0.125    0.375    0.000
  O     0.125    0.375    0.250
  O     0.375    0.125    0.000
  O     0.375    0.125    0.250
  O     0.375    0.375    0.000
  O     0.375    0.375    0.250
  O     0.125    0.000    0.125
  O     0.125    0.000    0.375
  O     0.125    0.250    0.125
  O     0.125    0.250    0.375
  O     0.375    0.000    0.125
  O     0.375    0.000    0.375
  O     0.375    0.250    0.125
  O     0.375    0.250    0.375
  Pb    0.500    0.000    0.000
  Pb    0.500    0.000    0.250
  Pb    0.500    0.250    0.000
  Pb    0.500    0.250    0.250
  Pb    0.750    0.000    0.000
  Pb    0.750    0.000    0.250
  Pb    0.750    0.250    0.000
  Pb    0.750    0.250    0.250
  Ti    0.625    0.125    0.125
  Ti    0.625    0.125    0.375
  Ti    0.625    0.375    0.125
  Ti    0.625    0.375    0.375
  Ti    0.875    0.125    0.125
  Ti    0.875    0.125    0.375
  Ti    0.875    0.375    0.125
  Ti    0.875    0.375    0.375
  O     0.500    0.125    0.125
  O     0.500    0.125    0.375
  O     0.500    0.375    0.125
  O     0.500    0.375    0.375
  O     0.750    0.125    0.125
  O     0.750    0.125    0.375
  O     0.750    0.375    0.125
  O     0.750    0.375    0.375
  O     0.625    0.125    0.000
  O     0.625    0.125    0.250
  O     0.625    0.375    0.000
  O     0.625    0.375    0.250
  O     0.875    0.125    0.000
  O     0.875    0.125    0.250
  O     0.875    0.375    0.000
  O     0.875    0.375    0.250
  O     0.625    0.000    0.125
  O     0.625    0.000    0.375
  O     0.625    0.250    0.125
  O     0.625    0.250    0.375
  O     0.875    0.000    0.125
  O     0.875    0.000    0.375
  O     0.875    0.250    0.125
  O     0.875    0.250    0.375
  Pb    0.000    0.500    0.000
  Pb    0.000    0.500    0.250
  Pb    0.000    0.750    0.000
  Pb    0.000    0.750    0.250
  Pb    0.250    0.500    0.000
  Pb    0.250    0.500    0.250
  Pb    0.250    0.750    0.000
  Pb    0.250    0.750    0.250
  Ti    0.125    0.625    0.125
  Ti    0.125    0.625    0.375
  Ti    0.125    0.875    0.125
  Ti    0.125    0.875    0.375
  Ti    0.375    0.625    0.125
  Ti    0.375    0.625    0.375
  Ti    0.375    0.875    0.125
  Ti    0.375    0.875    0.375
  O     0.000    0.625    0.125
  O     0.000    0.625    0.375
  O     0.000    0.875    0.125
  O     0.000    0.875    0.375
  O     0.250    0.625    0.125
  O     0.250    0.625    0.375
  O     0.250    0.875    0.125
  O     0.250    0.875    0.375
  O     0.125    0.625    0.000
  O     0.125    0.625    0.250
  O     0.125    0.875    0.000
  O     0.125    0.875    0.250
  O     0.375    0.625    0.000
  O     0.375    0.625    0.250
  O     0.375    0.875    0.000
  O     0.375    0.875    0.250
  O     0.125    0.500    0.125
  O     0.125    0.500    0.375
  O     0.125    0.750    0.125
  O     0.125    0.750    0.375
  O     0.375    0.500    0.125
  O     0.375    0.500    0.375
  O     0.375    0.750    0.125
  O     0.375    0.750    0.375
  Pb    0.500    0.500    0.000
  Pb    0.500    0.500    0.250
  Pb    0.500    0.750    0.000
  Pb    0.500    0.750    0.250
  Pb    0.750    0.500    0.000
  Pb    0.750    0.500    0.250
  Pb    0.750    0.750    0.000
  Pb    0.750    0.750    0.250
  Ti    0.625    0.625    0.125
  Ti    0.625    0.625    0.375
  Ti    0.625    0.875    0.125
  Ti    0.625    0.875    0.375
  Ti    0.875    0.625    0.125
  Ti    0.875    0.625    0.375
  Ti    0.875    0.875    0.125
  Ti    0.875    0.875    0.375
  O     0.500    0.625    0.125
  O     0.500    0.625    0.375
  O     0.500    0.875    0.125
  O     0.500    0.875    0.375
  O     0.750    0.625    0.125
  O     0.750    0.625    0.375
  O     0.750    0.875    0.125
  O     0.750    0.875    0.375
  O     0.625    0.625    0.000
  O     0.625    0.625    0.250
  O     0.625    0.875    0.000
  O     0.625    0.875    0.250
  O     0.875    0.625    0.000
  O     0.875    0.625    0.250
  O     0.875    0.875    0.000
  O     0.875    0.875    0.250
  O     0.625    0.500    0.125
  O     0.625    0.500    0.375
  O     0.625    0.750    0.125
  O     0.625    0.750    0.375
  O     0.875    0.500    0.125
  O     0.875    0.500    0.375
  O     0.875    0.750    0.125
  O     0.875    0.750    0.375
  Pb    0.000    0.000    0.500
  Pb    0.000    0.000    0.750
  Pb    0.000    0.250    0.500
  Pb    0.000    0.250    0.750
  Pb    0.250    0.000    0.500
  Pb    0.250    0.000    0.750
  Pb    0.250    0.250    0.500
  Pb    0.250    0.250    0.750
  Ti    0.125    0.125    0.625
  Ti    0.125    0.125    0.875
  Ti    0.125    0.375    0.625
  Ti    0.125    0.375    0.875
  Ti    0.375    0.125    0.625
  Ti    0.375    0.125    0.875
  Ti    0.375    0.375    0.625
  Ti    0.375    0.375    0.875
  O     0.000    0.125    0.625
  O     0.000    0.125    0.875
  O     0.000    0.375    0.625
  O     0.000    0.375    0.875
  O     0.250    0.125    0.625
  O     0.250    0.125    0.875
  O     0.250    0.375    0.625
  O     0.250    0.375    0.875
  O     0.125    0.125    0.500
  O     0.125    0.125    0.750
  O     0.125    0.375    0.500
  O     0.125    0.375    0.750
  O     0.375    0.125    0.500
  O     0.375    0.125    0.750
  O     0.375    0.375    0.500
  O     0.375    0.375    0.750
  O     0.125    0.000    0.625
  O     0.125    0.000    0.875
  O     0.125    0.250    0.625
  O     0.125    0.250    0.875
  O     0.375    0.000    0.625
  O     0.375    0.000    0.875
  O     0.375    0.250    0.625
  O     0.375    0.250    0.875
  Pb    0.500    0.000    0.500
  Pb    0.500    0.000    0.750
  Pb    0.500    0.250    0.500
  Pb    0.500    0.250    0.750
  Pb    0.750    0.000    0.500
  Pb    0.750    0.000    0.750
  Pb    0.750    0.250    0.500
  Pb    0.750    0.250    0.750
  Ti    0.625    0.125    0.625
  Ti    0.625    0.125    0.875
  Ti    0.625    0.375    0.625
  Ti    0.625    0.375    0.875
  Ti    0.875    0.125    0.625
  Ti    0.875    0.125    0.875
  Ti    0.875    0.375    0.625
  Ti    0.875    0.375    0.875
  O     0.500    0.125    0.625
  O     0.500    0.125    0.875
  O     0.500    0.375    0.625
  O     0.500    0.375    0.875
  O     0.750    0.125    0.625
  O     0.750    0.125    0.875
  O     0.750    0.375    0.625
  O     0.750    0.375    0.875
  O     0.625    0.125    0.500
  O     0.625    0.125    0.750
  O     0.625    0.375    0.500
  O     0.625    0.375    0.750
  O     0.875    0.125    0.500
  O     0.875    0.125    0.750
  O     0.875    0.375    0.500
  O     0.875    0.375    0.750
  O     0.625    0.000    0.625
  O     0.625    0.000    0.875
  O     0.625    0.250    0.625
  O     0.625    0.250    0.875
  O     0.875    0.000    0.625
  O     0.875    0.000    0.875
  O     0.875    0.250    0.625
  O     0.875    0.250    0.875
  Pb    0.000    0.500    0.500
  Pb    0.000    0.500    0.750
  Pb    0.000    0.750    0.500
  Pb    0.000    0.750    0.750
  Pb    0.250    0.500    0.500
  Pb    0.250    0.500    0.750
  Pb    0.250    0.750    0.500
  Pb    0.250    0.750    0.750
  Ti    0.125    0.625    0.625
  Ti    0.125    0.625    0.875
  Ti    0.125    0.875    0.625
  Ti    0.125    0.875    0.875
  Ti    0.375    0.625    0.625
  Ti    0.375    0.625    0.875
  Ti    0.375    0.875    0.625
  Ti    0.375    0.875    0.875
  O     0.000    0.625    0.625
  O     0.000    0.625    0.875
  O     0.000    0.875    0.625
  O     0.000    0.875    0.875
  O     0.250    0.625    0.625
  O     0.250    0.625    0.875
  O     0.250    0.875    0.625
  O     0.250    0.875    0.875
  O     0.125    0.625    0.500
  O     0.125    0.625    0.750
  O     0.125    0.875    0.500
  O     0.125    0.875    0.750
  O     0.375    0.625    0.500
  O     0.375    0.625    0.750
  O     0.375    0.875    0.500
  O     0.375    0.875    0.750
  O     0.125    0.500    0.625
  O     0.125    0.500    0.875
  O     0.125    0.750    0.625
  O     0.125    0.750    0.875
  O     0.375    0.500    0.625
  O     0.375    0.500    0.875
  O     0.375    0.750    0.625
  O     0.375    0.750    0.875
  Pb    0.500    0.500    0.500
  Pb    0.500    0.500    0.750
  Pb    0.500    0.750    0.500
  Pb    0.500    0.750    0.750
  Pb    0.750    0.500    0.500
  Pb    0.750    0.500    0.750
  Pb    0.750    0.750    0.500
  Pb    0.750    0.750    0.750
  Ti    0.625    0.625    0.625
  Ti    0.625    0.625    0.875
  Ti    0.625    0.875    0.625
  Ti    0.625    0.875    0.875
  Ti    0.875    0.625    0.625
  Ti    0.875    0.625    0.875
  Ti    0.875    0.875    0.625
  Ti    0.875    0.875    0.875
  O     0.500    0.625    0.625
  O     0.500    0.625    0.875
  O     0.500    0.875    0.625
  O     0.500    0.875    0.875
  O     0.750    0.625    0.625
  O     0.750    0.625    0.875
  O     0.750    0.875    0.625
  O     0.750    0.875    0.875
  O     0.625    0.625    0.500
  O     0.625    0.625    0.750
  O     0.625    0.875    0.500
  O     0.625    0.875    0.750
  O     0.875    0.625    0.500
  O     0.875    0.625    0.750
  O     0.875    0.875    0.500
  O     0.875    0.875    0.750
  O     0.625    0.500    0.625
  O     0.625    0.500    0.875
  O     0.625    0.750    0.625
  O     0.625    0.750    0.875
  O     0.875    0.500    0.625
  O     0.875    0.500    0.875
  O     0.875    0.750    0.625
  O     0.875    0.750    0.875
K_POINTS {automatic}
 1 1 1 1 1 1
