 &control
    calculation  = 'scf'
    tprnfor = .true.
    PSEUDO_DIR='/marconi/home/userexternal/czeni000/dft_src/pseudo/'
 /
 &system
    ibrav=1
    celldm(1)=7.3699,
    nat=5
    ntyp=3
    nbnd=25
    ecutwfc=25.0
    ecutrho=240.
 /
 &electrons
    conv_thr = 1e-12,
    mixing_beta=0.3
 /
ATOMIC_SPECIES
  Pb   207.2      'Pb.pz-d-van.UPF'
  Ti    47.867    'Ti.pz-sp-van_ak.UPF'
  O     15.9994   'O.pz-van_ak.UPF'
ATOMIC_POSITIONS (alat)
  Pb    0.000    0.000    0.100
  Ti    0.500    0.500    0.500
  O     0.000    0.500    0.500
  O     0.500    0.500    0.000
  O     0.500    0.000    0.500
K_POINTS {automatic}
 4 4 4 1 1 1
