 &control
    calculation  = 'scf'
    PSEUDO_DIR='/marconi/home/userexternal/czeni000/dft_src/pseudo/'
 /
 &system
    ibrav=1
    celldm(1)=14.7398,
    nat=40
    ntyp=3
    nbnd=200,
    ecutwfc=25.0
    ecutrho=240.
 /
 &electrons
    conv_thr = 1.d-8,
    mixing_beta=0.3
 /
ATOMIC_SPECIES
  Pb   207.2      'Pb.pz-d-van.UPF'
  Ti    47.867    'Ti.pz-sp-van_ak.UPF'
  O     15.9994   'O.pz-van_ak.UPF'
ATOMIC_POSITIONS (alat)
  Pb    0.000    0.000    0.000
  Pb    0.000    0.000    0.500
  Pb    0.000    0.500    0.000
  Pb    0.000    0.500    0.500
  Pb    0.500    0.000    0.000
  Pb    0.500    0.000    0.500
  Pb    0.500    0.500    0.000
  Pb    0.500    0.500    0.500
  Ti    0.250    0.250    0.250
  Ti    0.250    0.250    0.750
  Ti    0.250    0.750    0.250
  Ti    0.250    0.750    0.750
  Ti    0.750    0.250    0.250
  Ti    0.750    0.250    0.750
  Ti    0.750    0.750    0.250
  Ti    0.750    0.750    0.750
  O     0.000    0.250    0.250
  O     0.000    0.250    0.750
  O     0.000    0.750    0.250
  O     0.000    0.750    0.750
  O     0.500    0.250    0.250
  O     0.500    0.250    0.750
  O     0.500    0.750    0.250
  O     0.500    0.750    0.750
  O     0.250    0.250    0.000
  O     0.250    0.250    0.500
  O     0.250    0.750    0.000
  O     0.250    0.750    0.500
  O     0.750    0.250    0.000
  O     0.750    0.250    0.500
  O     0.750    0.750    0.000
  O     0.750    0.750    0.500
  O     0.250    0.000    0.250
  O     0.250    0.000    0.750
  O     0.250    0.500    0.250
  O     0.250    0.500    0.750
  O     0.750    0.000    0.250
  O     0.750    0.000    0.750
  O     0.750    0.500    0.250
  O     0.750    0.500    0.750
K_POINTS {automatic}
 2 2 2 1 1 1
