&CONTROL
calculation='scf'
prefix='ni'
restart_mode='from_scratch'
title="'srtio_bulk'"
tprnfor=.true.
forc_conv_thr=3.d-5
PSEUDO_DIR='/marconi/home/userexternal/czeni000/dft_src/pseudo/'
verbosity='high'
nstep=350
/
&SYSTEM
IBRAV=2
celldm(1) = 25.92
NAT=64
ntyp=1
ECUTWFC=24
ecutrho=288
occupations='smearing', 
smearing='marzari-vanderbilt', 
degauss=0.02
/
&ELECTRONS
startingpot='atomic'
conv_thr=1.0e-8
/
&ions
/
&cell
/
ATOMIC_SPECIES
 Ni 58.69 Ni.pz-nd-rrkjus.UPF
ATOMIC_POSITIONS alat
 Ni  0.0  0.0  0.0  
 Ni -0.125 0.0  0.125
 Ni  0.0  0.125 0.125
 Ni -0.125 0.125 0.25 
 Ni -0.125 0.125 0.0  
 Ni -0.25 0.125 0.125
 Ni -0.125 0.25 0.125
 Ni -0.25 0.25 0.25 
 Ni -0.25 0.0  0.25 
 Ni -0.375 0.0  0.375
 Ni -0.25 0.125 0.375
 Ni -0.375 0.125 0.5  
 Ni -0.375 0.125 0.25 
 Ni -0.5  0.125 0.375
 Ni -0.375 0.25 0.375
 Ni -0.5  0.25 0.5  
 Ni  0.0  0.25 0.25 
 Ni -0.125 0.25 0.375
 Ni  0.0  0.375 0.375
 Ni -0.125 0.375 0.5  
 Ni -0.125 0.375 0.25 
 Ni -0.25 0.375 0.375
 Ni -0.125 0.5  0.375
 Ni -0.25 0.5  0.5  
 Ni -0.25 0.25 0.5  
 Ni -0.375 0.25 0.625
 Ni -0.25 0.375 0.625
 Ni -0.375 0.375 0.75 
 Ni -0.375 0.375 0.5  
 Ni -0.5  0.375 0.625
 Ni -0.375 0.5  0.625
 Ni -0.5  0.5  0.75 
 Ni -0.25 0.25 0.0  
 Ni -0.375 0.25 0.125
 Ni -0.25 0.375 0.125
 Ni -0.375 0.375 0.25 
 Ni -0.375 0.375 0.0  
 Ni -0.5  0.375 0.125
 Ni -0.375 0.5  0.125
 Ni -0.5  0.5  0.25 
 Ni -0.5  0.25 0.25 
 Ni -0.625 0.25 0.375
 Ni -0.5  0.375 0.375
 Ni -0.625 0.375 0.5  
 Ni -0.625 0.375 0.25 
 Ni -0.75 0.375 0.375
 Ni -0.625 0.5  0.375
 Ni -0.75 0.5  0.5  
 Ni -0.25 0.5  0.25 
 Ni -0.375 0.5  0.375
 Ni -0.25 0.625 0.375
 Ni -0.375 0.625 0.5  
 Ni -0.375 0.625 0.25 
 Ni -0.5  0.625 0.375
 Ni -0.375 0.75 0.375
 Ni -0.5  0.75 0.5  
 Ni -0.5  0.5  0.5  
 Ni -0.625 0.5  0.625
 Ni -0.5  0.625 0.625
 Ni -0.625 0.625 0.75 
 Ni -0.625 0.625 0.5  
 Ni -0.75 0.625 0.625
 Ni -0.625 0.75 0.625
 Ni -0.75 0.75 0.75 
K_POINTS {automatic}
 2 2 2 1 1 1